*HEADING
compact_fdm / lower_lateral_150N
*NODE
1, -56, -19, 243
2, -53.5, -16, 245.5
3, -42, -19, 243
4, -45, -16, 245.5
5, -63, -12, 243
6, -59.7509025, -9.29241877, 245.707581
7, -54.2972973, -16, 245.137592
8, -59.2653563, -11.031941, 245.137592
9, -33, -16, 219
10, 33, -16, 219
11, 54.2972973, -16, 245.137592
12, 53.5, -16, 245.5
13, 45, -16, 245.5
14, 45, -16, 238
15, -45, -16, 238
16, -45, -16, 248
17, -42, -19, 248
18, -36, -19, 216
19, 36, -19, 216
20, 56, -19, 243
21, 42, -19, 243
22, -63, 36, 243
23, -59.7509025, 33.2924188, 245.707581
24, -37, 10, 219
25, -38.5959606, 11.7347397, 220.873519
26, -37, -12, 219
27, -59.443203, 34.3947858, 245.346369
28, -44.2023375, 17.8286278, 227.454918
29, -41, -14, 216
30, -42, -13, 238
31, -42, -13, 247.5
32, -43.5, -14.5, 246.75
33, -42, -13, 248
34, 42, -13, 238
35, 45, -16, 248
36, 42, -13, 248
37, 43.5, -14.5, 246.75
38, 42, -13, 247.5
39, 63, -12, 243
40, 59.7509025, -9.29241877, 245.707581
41, 59.2653563, -11.031941, 245.137592
42, 37, -12, 219
43, -13, -17.6086957, 196.478261
44, -17.3152174, -17.6086957, 196.478261
45, -13, -18, 191
46, 13, -18, 191
47, 13, -17.6086957, 196.478261
48, 17.3152174, -17.6086957, 196.478261
49, 42, -19, 248
50, 51, -13, 248
51, 57, -7, 248
52, 57, 31, 248
53, 51, 37, 248
54, -51, 37, 248
55, -57, 31, 248
56, -57, -7, 248
57, -51, -13, 248
58, 56, -7.66666667, 248
59, 51.6666667, -12, 248
60, -51.6666667, -12, 248
61, -56, -7.66666667, 248
62, -56, 31.6666667, 248
63, -51.6666667, 36, 248
64, 51.6666667, 36, 248
65, 56, 31.6666667, 248
66, -17, -21, 188
67, -17.5464602, -20.9424779, 188.80531
68, 17, -21, 188
69, 17.5464602, -20.9424779, 188.80531
70, 13, -20.9424779, 188.80531
71, 13, -20.9285714, 189
72, 17.6785714, -20.9285714, 189
73, -17.6785714, -20.9285714, 189
74, -13, -20.9285714, 189
75, -13, -20.9424779, 188.80531
76, 41, -14, 216
77, -56, 43, 243
78, -53.2773973, 39.7328767, 245.722603
79, -54.4674115, 39.3705773, 245.346369
80, -44.4771119, 15.7932129, 220.267365
81, -41, 11.6926831, 216
82, -33, 14, 219
83, -35.6283768, 17.1062635, 222.225735
84, -35.5003391, 16, 221.531441
85, -35.5904585, 16, 215.122952
86, -35.6110391, 16.4677377, 215.426794
87, -35.6926831, 17, 216
88, -38.4565219, 20.1934785, 219.316305
89, -40.6482533, 11.6322649, 215.552322
90, -38.2506867, 20.205357, 225.444025
91, -19, -9.22727273, 196.090909
92, -19, -15.6818182, 196.090909
93, -19, -16.875, 198
94, -19, -16.9767442, 198.162791
95, -18.875, -17, 198
96, -19, -19, 188
97, -19, -20.2056738, 189.985816
98, -18.0071429, -20.6, 189
99, -52.25, -14.5, 246.75
100, -52.0454545, -12.4545455, 247.772727
101, 52.25, -14.5, 246.75
102, 52.0454545, -12.4545455, 247.772727
103, 37, 10, 219
104, 38.5959606, 11.7347397, 220.873519
105, 44.5893486, 16, 227.909235
106, 44.2023375, 17.8286278, 227.454918
107, 59.443203, 34.3947858, 245.346369
108, 59.7509025, 33.2924188, 245.707581
109, 63, 36, 243
110, 18.875, -17, 198
111, 19, -16.9767442, 198.162791
112, 19, -16.875, 198
113, 19, -15.6818182, 196.090909
114, -13, -17, 198
115, 13, -17, 198
116, 13, -7.41176471, 195.941176
117, 13, -7, 198
118, 13, -12, 191
119, -13, -12, 191
120, -13, -7.41176471, 195.941176
121, -13, -7, 198
122, 56.4545455, -8.04545455, 247.772727
123, 58.5, -8.25, 246.75
124, 58.5, 32.25, 246.75
125, 56.4545455, 32.0454545, 247.772727
126, 52.0454545, 36.4545455, 247.772727
127, 52.25, 38.5, 246.75
128, -52.25, 38.5, 246.75
129, -52.0454545, 36.4545455, 247.772727
130, -56.4545455, 32.0454545, 247.772727
131, -58.5, 32.25, 246.75
132, -58.5, -8.25, 246.75
133, -56.4545455, -8.04545455, 247.772727
134, -17.4278711, -20.8300654, 188.424837
135, -19, -20.8300654, 188.424837
136, -19, -21, 189
137, -13, -21, 189
138, -19, -20.6, 189
139, 18.0071429, -20.6, 189
140, 19, -20.2056738, 189.985816
141, 19, -19, 188
142, 13, -21, 189
143, 19, -21, 189
144, 19, -20.6, 189
145, 17.4278711, -20.8300654, 188.424837
146, 19, -20.8300654, 188.424837
147, -19, -20.7045455, 188
148, -19, -21, 188
149, -13, -20.7045455, 188
150, -13, -9, 188
151, 13, -9, 188
152, 13, -20.7045455, 188
153, 19, -20.7045455, 188
154, 19, -21, 188
155, 41, 11.6926831, 216
156, 44.4771119, 15.7932129, 220.267365
157, 56, 43, 243
158, 53.2773973, 39.7328767, 245.722603
159, 33, 14, 219
160, 35.6283768, 17.1062635, 222.225735
161, 3.99097156, 14, 219
162, 4.49326923, 16, 221.076923
163, -3.99097156, 14, 219
164, 54.4674115, 39.3705773, 245.346369
165, 38.2506867, 20.205357, 225.444025
166, -15.4483173, 20, 225.230769
167, 24.5516827, 20, 225.230769
168, -19, -11, 188
169, -16.9411765, -7.41176471, 195.941176
170, -19, -7.12280702, 197.385965
171, -17.1637931, -8.77586207, 188.241379
172, -17.8391219, -8.88073394, 188.59633
173, -19, -8.71573604, 189.42132
174, 38.4565219, 20.1934785, 219.316305
175, 35.6926831, 17, 216
176, 23.2485348, 17, 216
177, 24.4656851, 20, 219.115385
178, 16.7514652, 17, 216
179, 4.30731686, 17, 216
180, -4.30731686, 17, 216
181, -16.7514652, 17, 216
182, -15.5343149, 20, 219.115385
183, -23.2485348, 17, 216
184, 17.1637931, -8.77586207, 188.241379
185, 35.6110391, 16.4677377, 215.426794
186, 13, -8.77586207, 188.241379
187, -13, -8.77586207, 188.241379
188, 4.40673077, 16, 214.923077
189, -19, -7, 198
190, -13, -13, 226
191, -19, -13, 226
192, -19, -5, 226
193, 44.4836456, 16, 220.392575
194, 40.6482533, 11.6322649, 215.552322
195, 19, -9.22727273, 196.090909
196, 19, -7, 198
197, 19, -7.12280702, 197.385965
198, 19, -5, 226
199, 19, -13, 226
200, 13, -13, 226
201, 16.9411765, -7.41176471, 195.941176
202, 13, -5, 226
203, -13, -5, 226
204, 19, -11, 188
205, 13, -10.3493252, 152.951562
206, 13, -18.0597657, 179.048438
207, 17.5617376, -8.66459253, 147.24939
208, 14.75, -8, 145
209, 19, -8, 145
210, 13, -19.9515979, 185.451562
211, 14.4382624, -20.4827743, 187.24939
212, 17.5617376, -19.7444984, 184.75061
213, 13, 1.59603936, 152.951562
214, 13, -6.29371378, 179.048438
215, 13, -8.22954204, 185.451562
216, 13, 3.40909091, 147
217, 13, 3.39534884, 147
218, -13, -10.3493252, 152.951562
219, -13, -18.0597657, 179.048438
220, -13, 1.59603936, 152.951562
221, -13, 3.39534884, 147
222, -13, 3.40909091, 147
223, -13, -19.9515979, 185.451562
224, -13, -8.22954204, 185.451562
225, -13, -6.29371378, 179.048438
226, -19, -8, 145
227, -14.75, -8, 145
228, -17.5617376, -8.66459253, 147.24939
229, -17.5617376, -19.7444984, 184.75061
230, -14.4382624, -20.4827743, 187.24939
231, -19, -8, 147
232, -19, -9, 188
233, -19, -8.88073394, 188.59633
234, -19, 3.40909091, 147
235, 19, -8.71573604, 189.42132
236, 17.8391219, -8.88073394, 188.59633
237, 19, 3.40909091, 147
238, 19, -8.88073394, 188.59633
239, 19, -8, 147
240, 19, -9, 188
241, 17.5617376, -20.0176263, 184.75061
242, 2.56124969, -14.3488372, 166
243, 2.56124969, -2.34883721, 166
244, 14.4382624, -20.7730714, 187.24939
245, 8.8817842e-16, -3.31675134, 169.201562
246, 8.8817842e-16, -15.3167513, 169.201562
247, 19, -8, 141
248, 16, -8, 144
249, 13, -8, 144
250, 13, -8, 145
251, 14.2387503, -8, 145
252, 17.5617376, -8.68004817, 147.24939
253, -2.56124969, -14.3488372, 166
254, -2.56124969, -2.34883721, 166
255, -17.5617376, -20.0176263, 184.75061
256, -14.4382624, -20.7730714, 187.24939
257, -17.5617376, -8.68004817, 147.24939
258, -19, -8, 141
259, -16, -8, 144
260, -14.2387503, -8, 145
261, -13, -8, 145
262, -13, -8, 144
263, -19, 4, 147
264, -13, 4, 147
265, 13, 4, 147
266, 19, 4, 147
267, 13, -8.45749301, 146.548438
268, 16, -13.2, 144
269, 8.2, -13.2, 144
270, 13, -6.7, 144
271, 8.2, -6.7, 144
272, 21, -13.2, 139
273, 21, -6.7, 139
274, 19, -6.7, 141
275, -1.77635684e-15, -13.3809231, 162.798438
276, -1.77635684e-15, -1.38092308, 162.798438
277, 13, 3.53186762, 146.548438
278, 13, -8, 146.548438
279, -13, -8.45749301, 146.548438
280, -13, -8, 146.548438
281, -13, 3.53186762, 146.548438
282, -16, -13.2, 144
283, -21, -13.2, 139
284, -19, -6.7, 141
285, -21, -6.7, 139
286, -8.2, -13.2, 144
287, -8.2, -6.7, 144
288, -13, -6.7, 144
289, 19, -6.7, 71
290, 21, -6.7, 73
291, 16, -13.2, 68
292, 21, -13.2, 73
293, 16, -8, 68
294, 19, -8, 71
295, 8.2, -6.7, 68
296, 13, -6.7, 68
297, 13, -6.7, 84.2
298, 8.45, -6.7, 88.75
299, 8.45, -6.7, 123.25
300, 13, -6.7, 127.8
301, 10, -13.2, 87.2
302, 13.2, -13.2, 84
303, 10, -12.8, 87.2
304, 8.45, -12.8, 88.75
305, 13, -8, 84.2
306, 13.2, -8, 84
307, 13, -8, 127.8
308, 13.2, -8, 128
309, 17.95, -8, 123.25
310, 17.95, -8, 88.75
311, 13.2, -13.2, 128
312, 10, -13.2, 124.8
313, 8.45, -12.8, 123.25
314, 10, -12.8, 124.8
315, 8.2, -13.2, 140
316, 10, -13.2, 140
317, 17.95, -13.2, 123.25
318, 17.95, -13.2, 88.75
319, 10, -13.2, 72
320, 10, -13.2, 68
321, 8.2, -12.8, 140
322, 8.2, -12.8, 68
323, -13, -6.7, 84.2
324, -13, -6.7, 68
325, -8.2, -6.7, 68
326, -13, -6.7, 127.8
327, -8.45, -6.7, 123.25
328, -8.45, -6.7, 88.75
329, -13.2, -13.2, 84
330, -10, -13.2, 87.2
331, -13.2, -8, 84
332, -13, -8, 84.2
333, -8.45, -12.8, 88.75
334, -10, -12.8, 87.2
335, -13, -8, 127.8
336, -17.95, -8, 88.75
337, -17.95, -8, 123.25
338, -13.2, -8, 128
339, -10, -13.2, 124.8
340, -13.2, -13.2, 128
341, -10, -12.8, 124.8
342, -8.45, -12.8, 123.25
343, -21, -13.2, 73
344, -16, -13.2, 68
345, -10, -13.2, 68
346, -10, -13.2, 72
347, -17.95, -13.2, 88.75
348, -17.95, -13.2, 123.25
349, -10, -13.2, 140
350, -8.2, -13.2, 140
351, -21, -6.7, 73
352, -19, -6.7, 71
353, -8.2, -12.8, 140
354, -8.2, -12.8, 68
355, -19, -8, 71
356, -16, -8, 68
357, 10, -13.8, 78
358, 10, -13.8, 140
359, 10, -14, 68
360, 13, -23.7, 78
361, -10, -13.8, 140
362, -13, -23.7, 140
363, 13, -23.7, 140
364, -6, -12.8, 138
365, 6, -12.8, 138
366, -6, -12.8, 131
367, 6, -12.8, 131
368, -10, -13.8, 78
369, -10, -14, 68
370, -13, -23.7, 78
371, -6, -16, 138
372, 6, -16, 138
373, -6, -16, 131
374, 6, -16, 131
375, 19, -8, 8
376, 13, -8, 68
377, 13, -8, 64.8605887
378, 2.66453526e-15, -8, 42.9230887
379, -13, -8, 64.8605887
380, -13, -8, 68
381, -19, -8, 8
382, -13, -8, 8
383, -13, -8, 13.1394113
384, 0, -8, 35.0769113
385, 13, -8, 13.1394113
386, 13, -8, 8
387, -2.32479331, -8, 39
388, -13, -8, 57.0144113
389, -13, -8, 20.9855887
390, 13, -8, 20.9855887
391, 13, -8, 57.0144113
392, 2.32479331, -8, 39
393, 2.66453526e-15, 4, 42.9230887
394, 13, 4, 64.8605887
395, -13, 4, 64.8605887
396, 18, 10.5, 0
397, 0.743303437, 10.5, 0
398, 18, 10.5, 8
399, -18, 10.5, 8
400, -18, 10.5, 0
401, -0.743303437, 10.5, 0
402, 5.55, 16, 0
403, 5.2, 16, 11
404, -2.1775, 20.7221281, 11
405, -2.1775, 21.1049969, 0
406, -18, 14.75, 0
407, -18, 14.75, 8
408, 18, 14.75, 0
409, 18, 14.75, 8
410, -18.2, 14.75, 0
411, -19.307657, 14.75, 8
412, -14.45, 20, 0
413, -14.8, 20, 11
414, -22.1775, 24.7221281, 11
415, -22.1775, 25.1049969, 0
416, -21.8, 14.75, 0
417, -20.692343, 14.75, 8
418, -22, 14.75, 0
419, -22, 14.75, 8
420, -19, -2, 8
421, -13, -2, 8
422, -13, 4, 8
423, -13, 4, 13.1394113
424, -12, -2, 0
425, -12, -2, 8
426, -20, -2, 8
427, -20, -2, 0
428, -20, 3.5, 0
429, -20, 3.5, 8
430, -55, 3.5, 0
431, -55, 3.5, 8
432, -58, 6.5, 0
433, -58, 6.5, 8
434, -58, 7.5, 0
435, -58, 7.5, 8
436, -55, 10.5, 0
437, -55, 10.5, 8
438, -22, 10.5, 0
439, -39.2566966, 10.5, 0
440, -22, 10.5, 8
441, -40.7433034, 10.5, 0
442, 0, 4, 35.0769113
443, 55, 10.5, 0
444, 40.7433034, 10.5, 0
445, 55, 10.5, 8
446, 22, 10.5, 8
447, 22, 10.5, 0
448, 39.2566966, 10.5, 0
449, 58, 7.5, 0
450, 58, 7.5, 8
451, 58, 6.5, 0
452, 58, 6.5, 8
453, 55, 3.5, 0
454, 55, 3.5, 8
455, 20, 3.5, 0
456, 20, 3.5, 8
457, 13, -2, 8
458, 19, -2, 8
459, 13, 4, 8
460, 13, 4, 13.1394113
461, 20, -2, 0
462, 20, -2, 8
463, 12, -2, 8
464, 12, -2, 0
465, 12, 3.5, 0
466, 12, 3.5, 8
467, -12, 3.5, 0
468, -12, 3.5, 8
469, 45.55, 16, 0
470, 45.2, 16, 11
471, 37.8225, 20.7221281, 11
472, 37.8225, 21.1049969, 0
473, 22, 14.75, 0
474, 22, 14.75, 8
475, -34.45, 16, 0
476, -34.8, 16, 11
477, -42.1775, 20.7221281, 11
478, -42.1775, 21.1049969, 0
479, 2.1775, 20.7221281, 11
480, 2.1775, 21.1049969, 0
481, -2.1775, 18.2761796, 0
482, -2.1775, 18.2761796, 11
483, 2.1775, 18.2761796, 11
484, 3.15, 16, 11
485, 18.2, 14.75, 0
486, 19.307657, 14.75, 8
487, 21.8, 14.75, 0
488, 20.692343, 14.75, 8
489, 25.55, 20, 0
490, 25.2, 20, 11
491, 17.8225, 24.7221281, 11
492, 17.8225, 25.1049969, 0
493, 42.1775, 20.7221281, 11
494, 42.1775, 21.1049969, 0
495, 37.8225, 18.2761796, 0
496, 37.8225, 18.2761796, 11
497, 42.1775, 18.2761796, 11
498, 43.15, 16, 11
499, -37.8225, 20.7221281, 11
500, -37.8225, 21.1049969, 0
501, -42.1775, 18.2761796, 0
502, -42.1775, 18.2761796, 11
503, -37.8225, 18.2761796, 11
504, -36.85, 16, 11
505, -17.8225, 24.7221281, 11
506, -17.8225, 25.1049969, 0
507, -22.1775, 22.2761796, 0
508, -22.1775, 22.2761796, 11
509, -17.8225, 22.2761796, 11
510, -16.85, 20, 11
511, 2.1775, 18.2761796, 0
512, 22.1775, 24.7221281, 11
513, 22.1775, 25.1049969, 0
514, 17.8225, 22.2761796, 0
515, 17.8225, 22.2761796, 11
516, 22.1775, 22.2761796, 11
517, 23.15, 20, 11
518, 42.1775, 18.2761796, 0
519, -37.8225, 18.2761796, 0
520, -17.8225, 22.2761796, 0
521, 22.1775, 22.2761796, 0
522, -13, 4, 20.9855887
523, -13, 4, 57.0144113
524, -2.32479331, 4, 39
525, 13, 4, 20.9855887
526, 13, 4, 57.0144113
527, 2.32479331, 4, 39
528, -19, 4, 8
529, 19, 4, 8
530, 14.4382624, 4, 144.75061
531, 14.75, 4, 145
532, 14.2387503, 4, 145
533, -14.2387503, 4, 145
534, -14.75, 4, 145
535, -14.4382624, 4, 144.75061
536, 14.4382624, 4.07539701, 144.75061
537, -14.4382624, 4.07539701, 144.75061
538, -36.85, 16, 0
539, -16.85, 20, 0
540, 3.15, 16, 0
541, 23.15, 20, 0
542, 43.15, 16, 0
543, -54.75, -17.5, 244.25
544, -51.3333333, -19, 243
545, -46.6666667, -19, 243
546, -43.5000008, -17.4999992, 244.250001
547, -49.25, -16, 245.5
548, -61.3754513, -10.6462094, 244.353791
549, -59.5, -15.5, 243
550, -53.8986486, -16, 245.318796
551, -56.7813268, -13.5159705, 245.137592
552, -59.5081294, -10.1621799, 245.422587
553, -36.042471, -16, 222.733942
554, -39.0849421, -16, 226.467883
555, -42.1274131, -16, 230.201825
556, -45.1698842, -16, 233.935767
557, -48.2123552, -16, 237.669709
558, -51.2548263, -16, 241.40365
559, -28.2857143, -16, 219
560, -23.5714286, -16, 219
561, -18.8571429, -16, 219
562, -14.1428571, -16, 219
563, -9.42857143, -16, 219
564, -4.71428571, -16, 219
565, 4.26325641e-14, -16, 219
566, 4.71428571, -16, 219
567, 9.42857143, -16, 219
568, 14.1428571, -16, 219
569, 18.8571429, -16, 219
570, 23.5714286, -16, 219
571, 28.2857143, -16, 219
572, 36.042471, -16, 222.733942
573, 39.0849421, -16, 226.467883
574, 42.1274131, -16, 230.201825
575, 45.1698842, -16, 233.935767
576, 48.2123552, -16, 237.669709
577, 51.2548263, -16, 241.40365
578, 53.8986486, -16, 245.318796
579, 49.25, -16, 245.5
580, 45, -16, 241.75
581, 40, -16, 238
582, 35, -16, 238
583, 30, -16, 238
584, 25, -16, 238
585, 20, -16, 238
586, 15, -16, 238
587, 10, -16, 238
588, 5, -16, 238
589, 0, -16, 238
590, -5, -16, 238
591, -10, -16, 238
592, -15, -16, 238
593, -20, -16, 238
594, -25, -16, 238
595, -30, -16, 238
596, -35, -16, 238
597, -40, -16, 238
598, -45, -16, 241.75
599, -38.8571429, -19, 219.857143
600, -41.7142857, -19, 223.714286
601, -44.5714286, -19, 227.571429
602, -47.4285714, -19, 231.428571
603, -50.2857143, -19, 235.285714
604, -53.1428571, -19, 239.142857
605, -31.2, -19, 216
606, -26.4, -19, 216
607, -21.6, -19, 216
608, -16.8, -19, 216
609, -12, -19, 216
610, -7.2, -19, 216
611, -2.4, -19, 216
612, 2.4, -19, 216
613, 7.2, -19, 216
614, 12, -19, 216
615, 16.8, -19, 216
616, 21.6, -19, 216
617, 26.4, -19, 216
618, 31.2, -19, 216
619, 38.8571429, -19, 219.857143
620, 41.7142857, -19, 223.714286
621, 44.5714286, -19, 227.571429
622, 47.4285714, -19, 231.428571
623, 50.2857143, -19, 235.285714
624, 53.1428571, -19, 239.142857
625, 46.6666667, -19, 243
626, 51.3333333, -19, 243
627, -37.0588235, -19, 243
628, -32.1176471, -19, 243
629, -27.1764706, -19, 243
630, -22.2352941, -19, 243
631, -17.2941176, -19, 243
632, -12.3529412, -19, 243
633, -7.41176471, -19, 243
634, -2.47058824, -19, 243
635, 2.47058824, -19, 243
636, 7.41176471, -19, 243
637, 12.3529412, -19, 243
638, 17.2941176, -19, 243
639, 22.2352941, -19, 243
640, 27.1764706, -19, 243
641, 32.1176471, -19, 243
642, 37.0588235, -19, 243
643, -61.3754513, 34.6462094, 244.353791
644, -63, 31.2, 243
645, -63, 26.4, 243
646, -63, 21.6, 243
647, -63, 16.8, 243
648, -63, 12, 243
649, -63, 7.2, 243
650, -63, 2.4, 243
651, -63, -2.4, 243
652, -63, -7.2, 243
653, -59.7509025, -4.56077016, 245.707581
654, -59.7509025, 0.17087846, 245.707581
655, -59.7509025, 4.90252708, 245.707581
656, -59.7509025, 9.63417569, 245.707581
657, -59.7509025, 14.3658243, 245.707581
658, -59.7509025, 19.0974729, 245.707581
659, -59.7509025, 23.8291215, 245.707581
660, -59.7509025, 28.5607702, 245.707581
661, -37.7979803, 10.8673699, 219.936759
662, -37, 5.6, 219
663, -37, 1.2, 219
664, -37, -3.2, 219
665, -37, -7.6, 219
666, -40.1807652, -11.8617059, 222.733942
667, -43.3615304, -11.7234117, 226.467883
668, -46.5422955, -11.5851176, 230.201825
669, -49.7230607, -11.4468234, 233.935767
670, -52.9038259, -11.3085293, 237.669709
671, -56.0845911, -11.1702352, 241.40365
672, -59.5970528, 33.8436023, 245.526975
673, -46.7424818, 20.5896541, 230.436826
674, -49.282626, 23.3506805, 233.418735
675, -51.8227703, 26.1117068, 236.400643
676, -54.3629145, 28.8727332, 239.382552
677, -56.9030587, 31.6337595, 242.36446
678, -43.9823703, 13.739253, 227.196696
679, -41.4639775, 11.7048881, 224.240321
680, -35, -14, 219
681, -38.5, -16.5, 216
682, -44.1428571, -13.7142857, 219.857143
683, -47.2857143, -13.4285714, 223.714286
684, -50.4285714, -13.1428571, 227.571429
685, -53.5714286, -12.8571429, 231.428571
686, -56.7142857, -12.5714286, 235.285714
687, -59.8571429, -12.2857143, 239.142857
688, -42, -13, 242.75
689, -42.75, -13.75, 247.125
690, -42.75, -13.75, 247.375
691, 37.0588235, -13, 238
692, 32.1176471, -13, 238
693, 27.1764706, -13, 238
694, 22.2352941, -13, 238
695, 17.2941176, -13, 238
696, 12.3529412, -13, 238
697, 7.41176471, -13, 238
698, 2.47058824, -13, 238
699, -2.47058824, -13, 238
700, -7.41176471, -13, 238
701, -12.3529412, -13, 238
702, -17.2941176, -13, 238
703, -22.2352941, -13, 238
704, -27.1764706, -13, 238
705, -32.1176471, -13, 238
706, -37.0588235, -13, 238
707, 42.75, -13.75, 247.375
708, 42.75, -13.75, 247.125
709, 42, -13, 242.75
710, 43.5000008, -17.4999992, 244.250001
711, 54.75, -17.5, 244.25
712, 59.5, -15.5, 243
713, 61.3754513, -10.6462094, 244.353791
714, 59.5081294, -10.1621799, 245.422587
715, 56.7813268, -13.5159705, 245.137592
716, 35, -14, 219
717, 40.1807652, -11.8617059, 222.733942
718, 43.3615304, -11.7234117, 226.467883
719, 46.5422955, -11.5851176, 230.201825
720, 49.7230607, -11.4468234, 233.935767
721, 52.9038259, -11.3085293, 237.669709
722, 56.0845911, -11.1702352, 241.40365
723, -15.1576087, -17.6086957, 196.478261
724, -13, -17.8043478, 193.73913
725, -8.66666667, -18, 191
726, -4.33333333, -18, 191
727, 2.66453526e-14, -18, 191
728, 4.33333333, -18, 191
729, 8.66666667, -18, 191
730, 13, -17.8043478, 193.73913
731, 15.1576087, -17.6086957, 196.478261
732, 19.9293478, -17.3405797, 200.231884
733, 22.5434783, -17.0724638, 203.985507
734, 25.1576087, -16.8043478, 207.73913
735, 27.7717391, -16.5362319, 211.492754
736, 30.3858696, -16.2681159, 215.246377
737, -19.9293478, -17.3405797, 200.231884
738, -22.5434783, -17.0724638, 203.985507
739, -25.1576087, -16.8043478, 207.73913
740, -27.7717391, -16.5362319, 211.492754
741, -30.3858696, -16.2681159, 215.246377
742, -37.0588235, -19, 248
743, -32.1176471, -19, 248
744, -27.1764706, -19, 248
745, -22.2352941, -19, 248
746, -17.2941176, -19, 248
747, -12.3529412, -19, 248
748, -7.41176471, -19, 248
749, -2.47058824, -19, 248
750, 2.47058824, -19, 248
751, 7.41176471, -19, 248
752, 12.3529412, -19, 248
753, 17.2941176, -19, 248
754, 22.2352941, -19, 248
755, 27.1764706, -19, 248
756, 32.1176471, -19, 248
757, 37.0588235, -19, 248
758, 46.5, -13, 248
759, 54, -10, 248
760, 57, -2.25, 248
761, 57, 2.5, 248
762, 57, 7.25, 248
763, 57, 12, 248
764, 57, 16.75, 248
765, 57, 21.5, 248
766, 57, 26.25, 248
767, 54, 34, 248
768, 46.1428571, 37, 248
769, 41.2857143, 37, 248
770, 36.4285714, 37, 248
771, 31.5714286, 37, 248
772, 26.7142857, 37, 248
773, 21.8571429, 37, 248
774, 17, 37, 248
775, 12.1428571, 37, 248
776, 7.28571429, 37, 248
777, 2.42857143, 37, 248
778, -2.42857143, 37, 248
779, -7.28571429, 37, 248
780, -12.1428571, 37, 248
781, -17, 37, 248
782, -21.8571429, 37, 248
783, -26.7142857, 37, 248
784, -31.5714286, 37, 248
785, -36.4285714, 37, 248
786, -41.2857143, 37, 248
787, -46.1428571, 37, 248
788, -54, 34, 248
789, -57, 26.25, 248
790, -57, 21.5, 248
791, -57, 16.75, 248
792, -57, 12, 248
793, -57, 7.25, 248
794, -57, 2.5, 248
795, -57, -2.25, 248
796, -54, -10, 248
797, -46.5, -13, 248
798, 53.8333333, -9.83333333, 248
799, 46.7460317, -12, 248
800, 41.8253968, -12, 248
801, 36.9047619, -12, 248
802, 31.984127, -12, 248
803, 27.0634921, -12, 248
804, 22.1428571, -12, 248
805, 17.2222222, -12, 248
806, 12.3015873, -12, 248
807, 7.38095238, -12, 248
808, 2.46031746, -12, 248
809, -2.46031746, -12, 248
810, -7.38095238, -12, 248
811, -12.3015873, -12, 248
812, -17.2222222, -12, 248
813, -22.1428571, -12, 248
814, -27.0634921, -12, 248
815, -31.984127, -12, 248
816, -36.9047619, -12, 248
817, -41.8253968, -12, 248
818, -46.7460317, -12, 248
819, -53.8333333, -9.83333333, 248
820, -56, -2.75, 248
821, -56, 2.16666667, 248
822, -56, 7.08333333, 248
823, -56, 12, 248
824, -56, 16.9166667, 248
825, -56, 21.8333333, 248
826, -56, 26.75, 248
827, -53.8333333, 33.8333333, 248
828, -46.7460317, 36, 248
829, -41.8253968, 36, 248
830, -36.9047619, 36, 248
831, -31.984127, 36, 248
832, -27.0634921, 36, 248
833, -22.1428571, 36, 248
834, -17.2222222, 36, 248
835, -12.3015873, 36, 248
836, -7.38095238, 36, 248
837, -2.46031746, 36, 248
838, 2.46031746, 36, 248
839, 7.38095238, 36, 248
840, 12.3015873, 36, 248
841, 17.2222222, 36, 248
842, 22.1428571, 36, 248
843, 27.0634921, 36, 248
844, 31.984127, 36, 248
845, 36.9047619, 36, 248
846, 41.8253968, 36, 248
847, 46.7460317, 36, 248
848, 53.8333333, 33.8333333, 248
849, 56, 26.75, 248
850, 56, 21.8333333, 248
851, 56, 16.9166667, 248
852, 56, 12, 248
853, 56, 7.08333333, 248
854, 56, 2.16666667, 248
855, 56, -2.75, 248
856, -17.2732301, -20.9712389, 188.402655
857, -12.1428571, -21, 188
858, -7.28571429, -21, 188
859, -2.42857143, -21, 188
860, 2.42857143, -21, 188
861, 7.28571429, -21, 188
862, 12.1428571, -21, 188
863, 17.2732301, -20.9712389, 188.402655
864, 15.2732301, -20.9424779, 188.80531
865, 13, -20.9355247, 188.902655
866, 15.3392857, -20.9285714, 189
867, 20.2959184, -20.6530612, 192.857143
868, 22.9132653, -20.377551, 196.714286
869, 25.5306122, -20.1020408, 200.571429
870, 28.1479592, -19.8265306, 204.428571
871, 30.7653061, -19.5510204, 208.285714
872, 33.3826531, -19.2755102, 212.142857
873, -20.2959184, -20.6530612, 192.857143
874, -22.9132653, -20.377551, 196.714286
875, -25.5306122, -20.1020408, 200.571429
876, -28.1479592, -19.8265306, 204.428571
877, -30.7653061, -19.5510204, 208.285714
878, -33.3826531, -19.2755102, 212.142857
879, -15.3392857, -20.9285714, 189
880, -13, -20.9355247, 188.902655
881, -15.2732301, -20.9424779, 188.80531
882, 38.5, -16.5, 216
883, 44.1428571, -13.7142857, 219.857143
884, 47.2857143, -13.4285714, 223.714286
885, 50.4285714, -13.1428571, 227.571429
886, 53.5714286, -12.8571429, 231.428571
887, 56.7142857, -12.5714286, 235.285714
888, 59.8571429, -12.2857143, 239.142857
889, -54.6386986, 41.3664384, 244.361301
890, -59.5, 39.5, 243
891, -56.9553073, 36.8826816, 245.346369
892, -53.8724044, 39.551727, 245.534486
893, -43.1878006, 12.8813055, 218.685028
894, -41, 7.41056928, 216
895, -41, 3.12845543, 216
896, -41, -1.15365843, 216
897, -41, -5.43577229, 216
898, -41, -9.71788614, 216
899, -46.7924729, 18.3190613, 223.108944
900, -49.1078339, 20.8449097, 225.950523
901, -51.4231949, 23.3707581, 228.792103
902, -53.7385559, 25.8966065, 231.633682
903, -56.0539169, 28.4224549, 234.475262
904, -58.369278, 30.9483032, 237.316841
905, -60.684639, 33.4741516, 240.158421
906, -34.3141884, 15.5531317, 220.612868
907, -35, 12, 219
908, -36.3240449, 13.4289868, 220.54858
909, -35.5311554, 16.5646097, 221.866368
910, -35.5453988, 16, 218.327196
911, -35.5946651, 16.2358096, 215.272295
912, -35.6436246, 16.734454, 215.714027
913, -36.5598923, 18.8203619, 217.890376
914, -42.5419026, 19.7111981, 221.431168
915, -40.8243645, 11.6588468, 215.776464
916, -37.180074, 12.6302891, 214.015337
917, -41.5070931, 20.3264162, 227.343849
918, -36.474405, 18.8523154, 224.038943
919, -40.5673617, 22.9432456, 228.287217
920, -42.8840366, 25.6811342, 231.130409
921, -45.2007116, 28.4190228, 233.973601
922, -47.5173866, 31.1569114, 236.816793
923, -49.8340616, 33.8948001, 239.659985
924, -52.1507366, 36.6326887, 242.503177
925, -21.5714286, -6.48051948, 199.363636
926, -24.1428571, -3.73376623, 202.636364
927, -26.7142857, -0.987012987, 205.909091
928, -29.2857143, 1.75974026, 209.181818
929, -31.8571429, 4.50649351, 212.454545
930, -34.4285714, 7.25324675, 215.727273
931, -19, -12.4545455, 196.090909
932, -22, -15.0681818, 199.909091
933, -25, -14.4545455, 203.727273
934, -28, -13.8409091, 207.545455
935, -31, -13.2272727, 211.363636
936, -34, -12.6136364, 215.181818
937, -19, -16.278409, 197.045454
938, -19, -16.9258721, 198.081395
939, -18.9375, -16.9883721, 198.081395
940, -18.0951083, -17.304348, 197.23913
941, -21.75, -18.375, 191.5
942, -24.5, -17.75, 195
943, -27.25, -17.125, 198.5
944, -30, -16.5, 202
945, -32.75, -15.875, 205.5
946, -35.5, -15.25, 209
947, -38.25, -14.625, 212.5
948, -19, -19.602836, 188.992906
949, -18.5035712, -20.402837, 189.492908
950, -17.8428571, -20.7642857, 189
951, -51.625, -13.75, 247.375
952, -47.875, -14.5, 246.75
953, -51.8560606, -12.2272727, 247.886364
954, -52.1477272, -13.4772723, 247.261364
955, 37.0588235, -13, 247.5
956, 32.1176471, -13, 247.5
957, 27.1764706, -13, 247.5
958, 22.2352941, -13, 247.5
959, 17.2941176, -13, 247.5
960, 12.3529412, -13, 247.5
961, 7.41176471, -13, 247.5
962, 2.47058824, -13, 247.5
963, -2.47058824, -13, 247.5
964, -7.41176471, -13, 247.5
965, -12.3529412, -13, 247.5
966, -17.2941176, -13, 247.5
967, -22.2352941, -13, 247.5
968, -27.1764706, -13, 247.5
969, -32.1176471, -13, 247.5
970, -37.0588235, -13, 247.5
971, 47.875, -14.5, 246.75
972, 52.1477272, -13.4772723, 247.261364
973, 51.8560606, -12.2272727, 247.886364
974, 51.625, -13.75, 247.375
975, 37, -7.6, 219
976, 37, -3.2, 219
977, 37, 1.2, 219
978, 37, 5.6, 219
979, 37.7979803, 10.8673699, 219.936759
980, 41.0482675, 11.5920394, 223.752314
981, 43.3457859, 12.8887575, 226.449401
982, 44.4862522, 16.9591888, 227.788209
983, 46.7424818, 20.5896541, 230.436826
984, 49.282626, 23.3506805, 233.418735
985, 51.8227703, 26.1117068, 236.400643
986, 54.3629145, 28.8727332, 239.382552
987, 56.9030587, 31.6337595, 242.36446
988, 59.5970528, 33.8436023, 245.526975
989, 59.7509025, 28.5607702, 245.707581
990, 59.7509025, 23.8291215, 245.707581
991, 59.7509025, 19.0974729, 245.707581
992, 59.7509025, 14.3658243, 245.707581
993, 59.7509025, 9.63417569, 245.707581
994, 59.7509025, 4.90252708, 245.707581
995, 59.7509025, 0.17087846, 245.707581
996, 59.7509025, -4.56077016, 245.707581
997, 63, -7.2, 243
998, 63, -2.4, 243
999, 63, 2.4, 243
1000, 63, 7.2, 243
1001, 63, 12, 243
1002, 63, 16.8, 243
1003, 63, 21.6, 243
1004, 63, 26.4, 243
1005, 63, 31.2, 243
1006, 61.3754513, 34.6462094, 244.353791
1007, 18.0951083, -17.304348, 197.23913
1008, 18.9375, -16.9883721, 198.081395
1009, 19, -16.9258721, 198.081395
1010, 19, -16.278409, 197.045454
1011, 22, -15.0681818, 199.909091
1012, 25, -14.4545455, 203.727273
1013, 28, -13.8409091, 207.545455
1014, 31, -13.2272727, 211.363636
1015, 34, -12.6136364, 215.181818
1016, -13, -17.3043478, 197.23913
1017, -15.9375, -17, 198
1018, 13, -17.3043478, 197.23913
1019, 15.9375, -17, 198
1020, 13, -7.20588235, 196.970588
1021, 13, -9.70588258, 193.470588
1022, 13, -15, 191
1023, 13, -12, 198
1024, 8.66666667, -12, 191
1025, 4.33333333, -12, 191
1026, -2.66453526e-14, -12, 191
1027, -4.33333333, -12, 191
1028, -8.66666667, -12, 191
1029, -13, -15, 191
1030, -13, -9.70588258, 193.470588
1031, -13, -7.20588235, 196.970588
1032, -13, -12, 198
1033, 54.25, -10.25, 247.772727
1034, 57.4772723, -8.14772723, 247.261364
1035, 57.75, -7.625, 247.375
1036, 58.5, -3.75, 246.75
1037, 58.5, 0.75, 246.75
1038, 58.5, 5.25, 246.75
1039, 58.5, 9.75, 246.75
1040, 58.5, 14.25, 246.75
1041, 58.5, 18.75, 246.75
1042, 58.5, 23.25, 246.75
1043, 58.5, 27.75, 246.75
1044, 57.75, 31.625, 247.375
1045, 57.4772723, 32.1477272, 247.261364
1046, 54.25, 34.25, 247.772727
1047, 52.1477272, 37.4772723, 247.261364
1048, 51.625, 37.75, 247.375
1049, 47.2738095, 38.5, 246.75
1050, 42.297619, 38.5, 246.75
1051, 37.3214286, 38.5, 246.75
1052, 32.3452381, 38.5, 246.75
1053, 27.3690476, 38.5, 246.75
1054, 22.3928571, 38.5, 246.75
1055, 17.4166667, 38.5, 246.75
1056, 12.4404762, 38.5, 246.75
1057, 7.46428571, 38.5, 246.75
1058, 2.48809524, 38.5, 246.75
1059, -2.48809524, 38.5, 246.75
1060, -7.46428571, 38.5, 246.75
1061, -12.4404762, 38.5, 246.75
1062, -17.4166667, 38.5, 246.75
1063, -22.3928571, 38.5, 246.75
1064, -27.3690476, 38.5, 246.75
1065, -32.3452381, 38.5, 246.75
1066, -37.3214286, 38.5, 246.75
1067, -42.297619, 38.5, 246.75
1068, -47.2738095, 38.5, 246.75
1069, -51.625, 37.75, 247.375
1070, -52.1477272, 37.4772723, 247.261364
1071, -54.25, 34.25, 247.772727
1072, -57.4772723, 32.1477272, 247.261364
1073, -57.75, 31.625, 247.375
1074, -58.5, 27.75, 246.75
1075, -58.5, 23.25, 246.75
1076, -58.5, 18.75, 246.75
1077, -58.5, 14.25, 246.75
1078, -58.5, 9.75, 246.75
1079, -58.5, 5.25, 246.75
1080, -58.5, 0.75, 246.75
1081, -58.5, -3.75, 246.75
1082, -57.75, -7.625, 247.375
1083, -57.4772723, -8.14772723, 247.261364
1084, -54.25, -10.25, 247.772727
1085, 56.2272727, -7.85606061, 247.886364
1086, -56.2272727, -7.85606061, 247.886364
1087, -56.2272727, 31.8560606, 247.886364
1088, -51.8560606, 36.2272727, 247.886364
1089, 51.8560606, 36.2272727, 247.886364
1090, 56.2272727, 31.8560606, 247.886364
1091, -17.4871656, -20.8862716, 188.615073
1092, -17.2139355, -20.9150327, 188.212418
1093, -19, -20.9150327, 188.712418
1094, -13, -20.9712389, 188.902655
1095, -16, -21, 189
1096, 17.8428571, -20.7642857, 189
1097, 18.5035712, -20.402837, 189.492908
1098, 19, -19.602836, 188.992906
1099, 21.75, -18.375, 191.5
1100, 24.5, -17.75, 195
1101, 27.25, -17.125, 198.5
1102, 30, -16.5, 202
1103, 32.75, -15.875, 205.5
1104, 35.5, -15.25, 209
1105, 38.25, -14.625, 212.5
1106, 16, -21, 189
1107, 13, -20.9712389, 188.902655
1108, 17.4871656, -20.8862716, 188.615073
1109, 19, -20.9150327, 188.712418
1110, 17.2139355, -20.9150327, 188.212418
1111, -16, -20.7045455, 188
1112, -13, -12.9015152, 188
1113, -13, -16.8030303, 188
1114, 8.66666667, -9, 188
1115, 4.33333333, -9, 188
1116, -2.84217094e-14, -9, 188
1117, -4.33333333, -9, 188
1118, -8.66666667, -9, 188
1119, 13, -16.8030303, 188
1120, 13, -12.9015152, 188
1121, 16, -20.7045455, 188
1122, 41, -9.71788614, 216
1123, 41, -5.43577229, 216
1124, 41, -1.15365843, 216
1125, 41, 3.12845543, 216
1126, 41, 7.41056928, 216
1127, 43.1878006, 12.8813055, 218.685028
1128, 46.7924729, 18.3190613, 223.108944
1129, 49.1078339, 20.8449097, 225.950523
1130, 51.4231949, 23.3707581, 228.792103
1131, 53.7385559, 25.8966065, 231.633682
1132, 56.0539169, 28.4224549, 234.475262
1133, 58.369278, 30.9483032, 237.316841
1134, 60.684639, 33.4741516, 240.158421
1135, 54.6386986, 41.3664384, 244.361301
1136, 51.1304348, 43, 243
1137, 46.2608696, 43, 243
1138, 41.3913043, 43, 243
1139, 36.5217391, 43, 243
1140, 31.6521739, 43, 243
1141, 26.7826087, 43, 243
1142, 21.9130435, 43, 243
1143, 17.0434783, 43, 243
1144, 12.173913, 43, 243
1145, 7.30434783, 43, 243
1146, 2.43478261, 43, 243
1147, -2.43478261, 43, 243
1148, -7.30434783, 43, 243
1149, -12.173913, 43, 243
1150, -17.0434783, 43, 243
1151, -21.9130435, 43, 243
1152, -26.7826087, 43, 243
1153, -31.6521739, 43, 243
1154, -36.5217391, 43, 243
1155, -41.3913043, 43, 243
1156, -46.2608696, 43, 243
1157, -51.1304348, 43, 243
1158, -48.4339975, 39.7328767, 245.722603
1159, -43.5905978, 39.7328767, 245.722603
1160, -38.747198, 39.7328767, 245.722603
1161, -33.9037983, 39.7328767, 245.722603
1162, -29.0603985, 39.7328767, 245.722603
1163, -24.2169988, 39.7328767, 245.722603
1164, -19.373599, 39.7328767, 245.722603
1165, -14.5301993, 39.7328767, 245.722603
1166, -9.6867995, 39.7328767, 245.722603
1167, -4.84339975, 39.7328767, 245.722603
1168, 1.90780725e-12, 39.7328767, 245.722603
1169, 4.84339975, 39.7328767, 245.722603
1170, 9.6867995, 39.7328767, 245.722603
1171, 14.5301993, 39.7328767, 245.722603
1172, 19.373599, 39.7328767, 245.722603
1173, 24.2169988, 39.7328767, 245.722603
1174, 29.0603985, 39.7328767, 245.722603
1175, 33.9037983, 39.7328767, 245.722603
1176, 38.747198, 39.7328767, 245.722603
1177, 43.5905978, 39.7328767, 245.722603
1178, 48.4339975, 39.7328767, 245.722603
1179, 34.3141884, 15.5531317, 220.612868
1180, 28.1651619, 14, 219
1181, 23.3303239, 14, 219
1182, 18.4954858, 14, 219
1183, 13.6606477, 14, 219
1184, 8.82580963, 14, 219
1185, 4.3620112, 14.9854077, 220.023308
1186, 3.6045992, 18.7493178, 223.931984
1187, 0.577252513, 20.5226243, 225.773494
1188, -2.98198327, 19.4277673, 224.636528
1189, -4.43272018, 16.8037927, 221.911631
1190, -8.82580963, 14, 219
1191, -13.6606477, 14, 219
1192, -18.4954858, 14, 219
1193, -23.3303239, 14, 219
1194, -28.1651619, 14, 219
1195, 53.8724044, 39.551727, 245.534486
1196, 40.5673617, 22.9432456, 228.287217
1197, 42.8840366, 25.6811342, 231.130409
1198, 45.2007116, 28.4190228, 233.973601
1199, 47.5173866, 31.1569114, 236.816793
1200, 49.8340616, 33.8948001, 239.659985
1201, 52.1507366, 36.6326887, 242.503177
1202, 36.474405, 18.8523154, 224.038943
1203, -16.4653516, 22.9353253, 228.278992
1204, -19.9041656, 24.6181286, 230.026518
1205, -23.4382158, 23.050241, 228.398327
1206, -24.5516827, 20.1329684, 225.368852
1207, -23.5346484, 17.1976428, 222.320629
1208, -20.0958345, 15.5148395, 220.573103
1209, -16.5617844, 17.0827269, 222.201293
1210, 23.5346484, 22.9353253, 228.278992
1211, 20.0958351, 24.6181286, 230.026518
1212, 16.5617844, 23.0502412, 228.398327
1213, 15.4483173, 20.132968, 225.368851
1214, 16.4653517, 17.1976426, 222.320629
1215, 19.9041649, 15.5148395, 220.573103
1216, 23.4382156, 17.082727, 222.201293
1217, -40.6494567, 23.0442937, 222.276767
1218, -42.8423914, 25.8951089, 225.237228
1219, -45.0353262, 28.7459241, 228.19769
1220, -47.228261, 31.5967392, 231.158152
1221, -49.4211957, 34.4475544, 234.118614
1222, -51.6141305, 37.2983696, 237.079076
1223, -53.8070652, 40.1491848, 240.039538
1224, -21.4053615, -8.4853039, 191.061369
1225, -23.810723, -5.97060781, 194.122738
1226, -26.2160844, -3.45591171, 197.184107
1227, -28.6214459, -0.941215616, 200.245477
1228, -31.0268074, 1.57348048, 203.306846
1229, -33.4321689, 4.08817658, 206.368215
1230, -35.8375304, 6.60287267, 209.429584
1231, -38.2428919, 9.11756877, 212.490953
1232, -19, -15, 188
1233, -18.9485294, -4.73529412, 198.823529
1234, -20.9558824, -2.05882353, 201.705882
1235, -22.9632353, 0.617647059, 204.588235
1236, -24.9705882, 3.29411765, 207.470588
1237, -26.9779412, 5.97058824, 210.352941
1238, -28.9852941, 8.64705882, 213.235294
1239, -30.9926471, 11.3235294, 216.117647
1240, -17.9705876, -7.26728595, 196.66357
1241, -19, -8.17503994, 196.738437
1242, -19.2134871, -5.97101765, 191.261981
1243, -21.2631811, -3.16617324, 194.282583
1244, -23.3128751, -0.361328825, 197.303184
1245, -25.3625691, 2.44351559, 200.323786
1246, -27.4122631, 5.24836, 203.344388
1247, -29.4619571, 8.05320442, 206.364989
1248, -31.5116511, 10.8580488, 209.385591
1249, -33.5613451, 13.6628932, 212.406193
1250, -17.5014573, -8.82829798, 188.418855
1251, -18.4195607, -8.79823503, 189.008825
1252, -19, -9.85786828, 188.71066
1253, 40.6494567, 23.0442937, 222.276767
1254, 42.8423914, 25.8951089, 225.237228
1255, 45.0353262, 28.7459241, 228.19769
1256, 47.228261, 31.5967392, 231.158152
1257, 49.4211957, 34.4475544, 234.118614
1258, 51.6141305, 37.2983696, 237.079076
1259, 53.8070652, 40.1491848, 240.039538
1260, 36.5598923, 18.8203619, 217.890376
1261, 31.5446337, 17, 216
1262, 27.3965843, 17, 216
1263, 24.1599152, 18.4397232, 217.495097
1264, 23.4259227, 22.9307823, 222.158889
1265, 19.9249612, 24.5312351, 223.820898
1266, 16.5002657, 22.8401332, 222.064754
1267, 15.5370488, 19.8959075, 219.007289
1268, 12.6034157, 17, 216
1269, 8.4553663, 17, 216
1270, 2.1869418, 19.8917232, 219.002943
1271, -2.1869418, 19.8917232, 219.002943
1272, -8.4553663, 17, 216
1273, -12.6034157, 17, 216
1274, -15.8400849, 18.4397228, 217.495097
1275, -16.5740773, 22.9307823, 222.158889
1276, -20.0750395, 24.531235, 223.820898
1277, -23.4997344, 22.8401331, 222.064754
1278, -24.4629513, 19.8959094, 219.007291
1279, -27.3965843, 17, 216
1280, -31.5446337, 17, 216
1281, 19.2134871, -5.97101765, 191.261981
1282, 21.2631811, -3.16617324, 194.282583
1283, 23.3128751, -0.361328825, 197.303184
1284, 25.3625691, 2.44351559, 200.323786
1285, 27.4122631, 5.24836, 203.344388
1286, 29.4619571, 8.05320442, 206.364989
1287, 31.5116511, 10.8580488, 209.385591
1288, 33.5613451, 13.6628932, 212.406193
1289, 15.0818966, -8.77586207, 188.241379
1290, 13, -8.88793104, 188.12069
1291, -13, -8.88793104, 188.12069
1292, -15.0818966, -8.77586207, 188.241379
1293, -19.9999998, 15.599337, 214.491594
1294, -3.83662349, 13.8976207, 212.658976
1295, -0.72997147, 11.7198902, 210.313728
1296, 3.17020336, 13.0047768, 211.697452
1297, 4.38576339, 16.5013253, 215.462966
1298, 19.9999998, 15.599337, 214.491594
1299, 35.6436246, 16.734454, 215.714027
1300, -19, -7.06140351, 197.692982
1301, -19, -11.9375, 198
1302, -13, -16.3333333, 202.666667
1303, -13, -15.6666667, 207.333333
1304, -13, -15, 212
1305, -13, -14.3333333, 216.666667
1306, -13, -13.6666667, 221.333333
1307, -16, -13, 226
1308, -19, -16.3139535, 202.802326
1309, -19, -15.6511628, 207.44186
1310, -19, -14.9883721, 212.081395
1311, -19, -14.3255814, 216.72093
1312, -19, -13.6627907, 221.360465
1313, -19, -6.66666667, 202.666667
1314, -19, -6.33333333, 207.333333
1315, -19, -6, 212
1316, -19, -5.66666667, 216.666667
1317, -19, -5.33333333, 221.333333
1318, -19, -9, 226
1319, -19, -20.4028369, 189.492908
1320, 59.5, 39.5, 243
1321, 56.9553073, 36.8826816, 245.346369
1322, 41.5070931, 20.3264162, 227.343849
1323, 44.5364971, 16, 224.150905
1324, 42.4424377, 19.7770708, 221.411451
1325, 36.9722032, 12.8160278, 214.001566
1326, 40.8243645, 11.6588468, 215.776464
1327, 44.4815718, 15.8962659, 220.33047
1328, 35.9918654, 13.9817655, 220.672667
1329, 35, 12, 219
1330, 19, -12.4545455, 196.090909
1331, 21.5714286, -6.48051948, 199.363636
1332, 24.1428571, -3.73376623, 202.636364
1333, 26.7142857, -0.987012987, 205.909091
1334, 29.2857143, 1.75974026, 209.181818
1335, 31.8571429, 4.50649351, 212.454545
1336, 34.4285714, 7.25324675, 215.727273
1337, 19, -11.9375, 198
1338, 19, -8.17503994, 196.738437
1339, 19, -7.06140351, 197.692982
1340, 19, -6.66666667, 202.666667
1341, 19, -6.33333333, 207.333333
1342, 19, -6, 212
1343, 19, -5.66666667, 216.666667
1344, 19, -5.33333333, 221.333333
1345, 19, -9, 226
1346, 19, -16.3139535, 202.802326
1347, 19, -15.6511628, 207.44186
1348, 19, -14.9883721, 212.081395
1349, 19, -14.3255814, 216.72093
1350, 19, -13.6627907, 221.360465
1351, 13, -16.3333333, 202.666667
1352, 13, -15.6666667, 207.333333
1353, 13, -15, 212
1354, 13, -14.3333333, 216.666667
1355, 13, -13.6666667, 221.333333
1356, 16, -13, 226
1357, 14.9705882, -7.41176471, 195.941176
1358, 16, -7, 198
1359, 17.9705876, -7.26728595, 196.66357
1360, 13, -9, 226
1361, 13, -6.66666667, 202.666667
1362, 13, -6.33333333, 207.333333
1363, 13, -6, 212
1364, 13, -5.66666667, 216.666667
1365, 13, -5.33333333, 221.333333
1366, 18.9485294, -4.73529412, 198.823529
1367, 20.9558824, -2.05882353, 201.705882
1368, 22.9632353, 0.617647059, 204.588235
1369, 24.9705882, 3.29411765, 207.470588
1370, 26.9779412, 5.97058824, 210.352941
1371, 28.9852941, 8.64705882, 213.235294
1372, 30.9926471, 11.3235294, 216.117647
1373, -14.9705882, -7.41176471, 195.941176
1374, -1.79302886, 11.9458505, 216.787839
1375, 1.79302887, 11.9458505, 216.787839
1376, -13, -6.66666667, 202.666667
1377, -13, -6.33333333, 207.333333
1378, -13, -6, 212
1379, -13, -5.66666667, 216.666667
1380, -13, -5.33333333, 221.333333
1381, -13, -9, 226
1382, -16, -7, 198
1383, -19, -20.9150327, 188.212418
1384, -19, -20.7150327, 188.712418
1385, 19, -15, 188
1386, 21.4053615, -8.4853039, 191.061369
1387, 23.810723, -5.97060781, 194.122738
1388, 26.2160844, -3.45591171, 197.184107
1389, 28.6214459, -0.941215616, 200.245477
1390, 31.0268074, 1.57348048, 203.306846
1391, 33.4321689, 4.08817658, 206.368215
1392, 35.8375304, 6.60287267, 209.429584
1393, 38.2428919, 9.11756877, 212.490953
1394, 19, -20.4028369, 189.492908
1395, 19, -20.7150327, 188.712418
1396, 19, -20.9150327, 188.212418
1397, 13, -11.6343986, 157.301041
1398, 13, -12.919472, 161.650521
1399, 13, -14.2045455, 166
1400, 13, -15.4896189, 170.349479
1401, 13, -16.7746923, 174.698959
1402, 15.2808688, -9.50695885, 150.100476
1403, 16.1558688, -8.33229626, 146.124695
1404, 19, -9.41161616, 149.777778
1405, 19, -10.8232323, 154.555556
1406, 19, -12.2348485, 159.333333
1407, 19, -13.6464646, 164.111111
1408, 19, -15.0580808, 168.888889
1409, 19, -16.469697, 173.666667
1410, 19, -17.8813131, 178.444444
1411, 19, -19.2929293, 183.222222
1412, 13, -20.3280717, 186.725781
1413, 13.7191312, -20.2171861, 186.350476
1414, 16, -20.1136364, 186
1415, 15.2808688, -18.9021321, 181.899524
1416, 13, -2.38574882, 152.951562
1417, 13, -6.36753699, 152.951562
1418, 13, -14.1377484, 179.048438
1419, 13, -10.2157311, 179.048438
1420, 13, -7.26162791, 182.25
1421, 13, -12.136894, 185.451562
1422, 13, -16.0442459, 185.451562
1423, 13, 2.05520724, 151.582375
1424, 13, 0.701323581, 156.164751
1425, 13, -0.652560084, 160.747126
1426, 13, -2.00644375, 165.329502
1427, 13, -3.36032741, 169.911877
1428, 13, -4.71421108, 174.494253
1429, 13, -6.06809474, 179.076628
1430, 13, -7.4219784, 183.659004
1431, 13, 2.4956941, 149.975781
1432, -13, -11.6343986, 157.301041
1433, -13, -12.919472, 161.650521
1434, -13, -14.2045455, 166
1435, -13, -15.4896189, 170.349479
1436, -13, -16.7746923, 174.698959
1437, -13, -6.36753699, 152.951562
1438, -13, -2.38574882, 152.951562
1439, -13, 2.4956941, 149.975781
1440, -13, 2.05520724, 151.582375
1441, -13, 0.701323581, 156.164751
1442, -13, -0.652560084, 160.747126
1443, -13, -2.00644375, 165.329502
1444, -13, -3.36032741, 169.911877
1445, -13, -4.71421108, 174.494253
1446, -13, -6.06809474, 179.076628
1447, -13, -7.4219784, 183.659004
1448, -13, -20.3280717, 186.725781
1449, -13, -16.0442459, 185.451562
1450, -13, -12.136894, 185.451562
1451, -13, -7.26162791, 182.25
1452, -13, -10.2157311, 179.048438
1453, -13, -14.1377484, 179.048438
1454, -19, -9.41161616, 149.777778
1455, -19, -10.8232323, 154.555556
1456, -19, -12.2348485, 159.333333
1457, -19, -13.6464646, 164.111111
1458, -19, -15.0580808, 168.888889
1459, -19, -16.469697, 173.666667
1460, -19, -17.8813131, 178.444444
1461, -19, -19.2929293, 183.222222
1462, -16.1558688, -8.33229626, 146.124695
1463, -15.2808688, -9.50695885, 150.100476
1464, -15.2808688, -18.9021321, 181.899524
1465, -16, -20.1136364, 186
1466, -13.7191312, -20.2171861, 186.350476
1467, 4.45, 16, 218
1468, -15.4913161, 20, 222.173077
1469, 24.5086839, 20, 222.173077
1470, -19, -8.94036697, 188.298165
1471, -19, 2.04355481, 151.621814
1472, -19, 0.678018719, 156.243629
1473, -19, -0.687517376, 160.865443
1474, -19, -2.05305347, 165.487258
1475, -19, -3.41858957, 170.109072
1476, -19, -4.78412566, 174.730887
1477, -19, -6.14966176, 179.352701
1478, -19, -7.51519785, 183.974516
1479, -19, -4.1969697, 147
1480, -19, -0.393939394, 147
1481, -19, -8.79823499, 189.008825
1482, -16, 3.40909091, 147
1483, 19, -9.85786828, 188.71066
1484, 18.4195607, -8.79823503, 189.008825
1485, 17.5014573, -8.82829798, 188.418855
1486, 19, 2.04355481, 151.621814
1487, 19, 0.678018719, 156.243629
1488, 19, -0.687517376, 160.865443
1489, 19, -2.05305347, 165.487258
1490, 19, -3.41858957, 170.109072
1491, 19, -4.78412566, 174.730887
1492, 19, -6.14966176, 179.352701
1493, 19, -7.51519785, 183.974516
1494, 16, 3.40909091, 147
1495, -16, -5, 226
1496, 16, -5, 226
1497, 19, -4.1969697, 147
1498, 19, -0.393939394, 147
1499, 19, -8.94036697, 188.298165
1500, 17.5617376, -19.8810623, 184.75061
1501, 14.56164, -18.8838684, 181.000488
1502, 11.5615424, -17.7501106, 177.250366
1503, 8.56144486, -16.6163528, 173.500244
1504, 5.56134728, -15.482595, 169.750122
1505, 2.56124969, -10.3488372, 166
1506, 2.56124969, -6.34883721, 166
1507, 10.3903124, -5.30749464, 175.786328
1508, 7.78062485, -4.32127549, 172.524219
1509, 5.17093727, -3.33505635, 169.262109
1510, 14.4382624, -20.6279229, 187.24939
1511, 1.88737914e-15, -7.31675134, 169.201562
1512, 1.88737914e-15, -11.3167513, 169.201562
1513, 2.88765248, -16.4080154, 172.811128
1514, 5.77530495, -17.4992794, 176.420693
1515, 8.66295743, -18.5905434, 180.030259
1516, 11.5506099, -19.6818074, 183.639824
1517, 2.6, -4.29930948, 172.451562
1518, 5.2, -5.28186762, 175.701562
1519, 7.8, -6.26442576, 178.951562
1520, 10.4, -7.2469839, 182.201562
1521, 17.5617376, -8.67232035, 147.24939
1522, 5.56134728, -13.2150794, 162.249878
1523, 8.56144486, -12.0813216, 158.499756
1524, 11.5615424, -10.9475638, 154.749634
1525, 14.56164, -9.81380598, 150.999512
1526, 5.17093727, -1.36261807, 162.737891
1527, 7.78062485, -0.376398925, 159.475781
1528, 10.3903124, 0.609820217, 156.213672
1529, -2.56124969, -10.3488372, 166
1530, -2.56124969, -6.34883721, 166
1531, -5.56134728, -15.482595, 169.750122
1532, -8.56144486, -16.6163528, 173.500244
1533, -11.5615424, -17.7501106, 177.250366
1534, -14.56164, -18.8838684, 181.000488
1535, -17.5617376, -19.8810623, 184.75061
1536, -5.17093727, -3.33505635, 169.262109
1537, -7.78062485, -4.32127549, 172.524219
1538, -10.3903124, -5.30749464, 175.786328
1539, -14.4382624, -20.6279229, 187.24939
1540, -11.5506099, -19.6818074, 183.639824
1541, -8.66295743, -18.5905434, 180.030259
1542, -5.77530495, -17.4992794, 176.420693
1543, -2.88765248, -16.4080154, 172.811128
1544, -10.4, -7.2469839, 182.201562
1545, -7.8, -6.26442576, 178.951562
1546, -5.2, -5.28186762, 175.701562
1547, -2.6, -4.29930948, 172.451562
1548, -17.5617376, -8.67232035, 147.24939
1549, -14.56164, -9.81380598, 150.999512
1550, -11.5615424, -10.9475638, 154.749634
1551, -8.56144486, -12.0813216, 158.499756
1552, -5.56134728, -13.2150794, 162.249878
1553, -10.3903124, 0.609820217, 156.213672
1554, -7.78062485, -0.376398925, 159.475781
1555, -5.17093727, -1.36261807, 162.737891
1556, -16, 4, 147
1557, 19, -8.79823499, 189.008825
1558, 16, 4, 147
1559, 13, -8.22874651, 145.774219
1560, 13.6193752, -8.22874651, 145.774219
1561, 12.1, -13.2, 144
1562, 16, -10.6, 144
1563, 8.2, -9.95, 144
1564, 18.5, -13.2, 141.5
1565, 21, -9.95, 139
1566, 11.3910002, -9.07618462, 148.559688
1567, 8.54325018, -10.1523692, 152.119375
1568, 5.69550012, -11.2285538, 155.679063
1569, 2.84775006, -12.3047385, 159.23875
1570, 6.66133815e-15, -5.38092308, 162.798438
1571, 6.66133815e-15, -9.38092308, 162.798438
1572, 10.4, 2.54930948, 149.798438
1573, 7.8, 1.56675134, 153.048438
1574, 5.2, 0.584193199, 156.298438
1575, 2.6, -0.398364941, 159.548438
1576, 13, -4.15604413, 146.548438
1577, 13, -0.312088255, 146.548438
1578, 13, -8.22874651, 146.548438
1579, -2.84775006, -12.3047385, 159.23875
1580, -5.69550012, -11.2285538, 155.679063
1581, -8.54325018, -10.1523692, 152.119375
1582, -11.3910002, -9.07618462, 148.559688
1583, -13.6193752, -8.22874651, 145.774219
1584, -13, -8.22874651, 146.548438
1585, -13, -4.15604413, 146.548438
1586, -13, -0.312088255, 146.548438
1587, -2.6, -0.398364941, 159.548438
1588, -5.2, 0.584193199, 156.298438
1589, -7.8, 1.56675134, 153.048438
1590, -10.4, 2.54930948, 149.798438
1591, -13, -8.22874651, 145.774219
1592, -18.5, -13.2, 141.5
1593, -16, -10.6, 144
1594, -21, -9.95, 139
1595, -12.1, -13.2, 144
1596, -8.2, -9.95, 144
1597, 19, -6.7, 136
1598, 19, -6.7, 131
1599, 19, -6.7, 126
1600, 19, -6.7, 121
1601, 19, -6.7, 116
1602, 19, -6.7, 111
1603, 19, -6.7, 106
1604, 19, -6.7, 101
1605, 19, -6.7, 96
1606, 19, -6.7, 91
1607, 19, -6.7, 86
1608, 19, -6.7, 81
1609, 19, -6.7, 76
1610, 21, -6.7, 77.7142857
1611, 21, -6.7, 82.4285714
1612, 21, -6.7, 87.1428571
1613, 21, -6.7, 91.8571429
1614, 21, -6.7, 96.5714286
1615, 21, -6.7, 101.285714
1616, 21, -6.7, 106
1617, 21, -6.7, 110.714286
1618, 21, -6.7, 115.428571
1619, 21, -6.7, 120.142857
1620, 21, -6.7, 124.857143
1621, 21, -6.7, 129.571429
1622, 21, -6.7, 134.285714
1623, 18.5, -13.2, 70.5
1624, 16, -10.6, 68
1625, 21, -9.95, 73
1626, 8.2, -6.7, 72.75
1627, 8.2, -6.7, 77.5
1628, 8.2, -6.7, 82.25
1629, 8.2, -6.7, 87
1630, 8.2, -6.7, 91.75
1631, 8.2, -6.7, 96.5
1632, 8.2, -6.7, 101.25
1633, 8.2, -6.7, 106
1634, 8.2, -6.7, 110.75
1635, 8.2, -6.7, 115.5
1636, 8.2, -6.7, 120.25
1637, 8.2, -6.7, 125
1638, 8.2, -6.7, 129.75
1639, 8.2, -6.7, 134.5
1640, 8.2, -6.7, 139.25
1641, 13, -6.7, 80.15
1642, 13, -6.7, 76.1
1643, 13, -6.7, 72.05
1644, 10.725, -6.7, 86.475
1645, 8.45, -6.7, 118.321429
1646, 8.45, -6.7, 113.392857
1647, 8.45, -6.7, 108.464286
1648, 8.45, -6.7, 103.535714
1649, 8.45, -6.7, 98.6071429
1650, 8.45, -6.7, 93.6785714
1651, 10.725, -6.7, 125.525
1652, 13, -6.7, 139.95
1653, 13, -6.7, 135.9
1654, 13, -6.7, 131.85
1655, 8.45, -9.75, 88.75
1656, 13.2, -10.6, 84
1657, 13, -8, 89.0444444
1658, 13, -8, 93.8888889
1659, 13, -8, 98.7333333
1660, 13, -8, 103.577778
1661, 13, -8, 108.422222
1662, 13, -8, 113.266667
1663, 13, -8, 118.111111
1664, 13, -8, 122.955556
1665, 15.575, -8, 125.625
1666, 17.95, -8, 118.321429
1667, 17.95, -8, 113.392857
1668, 17.95, -8, 108.464286
1669, 17.95, -8, 103.535714
1670, 17.95, -8, 98.6071429
1671, 17.95, -8, 93.6785714
1672, 15.575, -8, 86.375
1673, 13.2, -10.6, 128
1674, 8.45, -9.75, 123.25
1675, 10, -13.2, 128.6
1676, 10, -13.2, 132.4
1677, 10, -13.2, 136.2
1678, 15.575, -13.2, 125.625
1679, 17.95, -13.2, 93.6785714
1680, 17.95, -13.2, 98.6071429
1681, 17.95, -13.2, 103.535714
1682, 17.95, -13.2, 108.464286
1683, 17.95, -13.2, 113.392857
1684, 17.95, -13.2, 118.321429
1685, 15.575, -13.2, 86.375
1686, 10, -13.2, 75.8
1687, 10, -13.2, 79.6
1688, 10, -13.2, 83.4
1689, 10.0408214, -13.2, 69.999577
1690, 13, -13.2, 68
1691, 21, -13.2, 77.7142857
1692, 21, -13.2, 82.4285714
1693, 21, -13.2, 87.1428571
1694, 21, -13.2, 91.8571429
1695, 21, -13.2, 96.5714286
1696, 21, -13.2, 101.285714
1697, 21, -13.2, 106
1698, 21, -13.2, 110.714286
1699, 21, -13.2, 115.428571
1700, 21, -13.2, 120.142857
1701, 21, -13.2, 124.857143
1702, 21, -13.2, 129.571429
1703, 21, -13.2, 134.285714
1704, 8.2, -12.8, 72.8
1705, 8.2, -12.8, 77.6
1706, 8.2, -12.8, 82.4
1707, 8.2, -12.8, 87.2
1708, 8.2, -12.8, 92
1709, 8.2, -12.8, 96.8
1710, 8.2, -12.8, 101.6
1711, 8.2, -12.8, 106.4
1712, 8.2, -12.8, 111.2
1713, 8.2, -12.8, 116
1714, 8.2, -12.8, 120.8
1715, 8.2, -12.8, 125.6
1716, 8.2, -12.8, 130.4
1717, 8.2, -12.8, 135.2
1718, 8.2, -9.75, 68
1719, -13, -6.7, 80.15
1720, -13, -6.7, 76.1
1721, -13, -6.7, 72.05
1722, -8.2, -6.7, 72.75
1723, -8.2, -6.7, 77.5
1724, -8.2, -6.7, 82.25
1725, -8.2, -6.7, 87
1726, -8.2, -6.7, 91.75
1727, -8.2, -6.7, 96.5
1728, -8.2, -6.7, 101.25
1729, -8.2, -6.7, 106
1730, -8.2, -6.7, 110.75
1731, -8.2, -6.7, 115.5
1732, -8.2, -6.7, 120.25
1733, -8.2, -6.7, 125
1734, -8.2, -6.7, 129.75
1735, -8.2, -6.7, 134.5
1736, -8.2, -6.7, 139.25
1737, -13, -6.7, 139.95
1738, -13, -6.7, 135.9
1739, -13, -6.7, 131.85
1740, -10.725, -6.7, 125.525
1741, -8.45, -6.7, 93.6785714
1742, -8.45, -6.7, 98.6071429
1743, -8.45, -6.7, 103.535714
1744, -8.45, -6.7, 108.464286
1745, -8.45, -6.7, 113.392857
1746, -8.45, -6.7, 118.321429
1747, -10.725, -6.7, 86.475
1748, -13.2, -10.6, 84
1749, -8.45, -9.75, 88.75
1750, -13, -8, 89.0444444
1751, -13, -8, 93.8888889
1752, -13, -8, 98.7333333
1753, -13, -8, 103.577778
1754, -13, -8, 108.422222
1755, -13, -8, 113.266667
1756, -13, -8, 118.111111
1757, -13, -8, 122.955556
1758, -15.575, -8, 86.375
1759, -17.95, -8, 93.6785714
1760, -17.95, -8, 98.6071429
1761, -17.95, -8, 103.535714
1762, -17.95, -8, 108.464286
1763, -17.95, -8, 113.392857
1764, -17.95, -8, 118.321429
1765, -15.575, -8, 125.625
1766, -8.45, -9.75, 123.25
1767, -13.2, -10.6, 128
1768, -21, -13.2, 134.285714
1769, -21, -13.2, 129.571429
1770, -21, -13.2, 124.857143
1771, -21, -13.2, 120.142857
1772, -21, -13.2, 115.428571
1773, -21, -13.2, 110.714286
1774, -21, -13.2, 106
1775, -21, -13.2, 101.285714
1776, -21, -13.2, 96.5714286
1777, -21, -13.2, 91.8571429
1778, -21, -13.2, 87.1428571
1779, -21, -13.2, 82.4285714
1780, -21, -13.2, 77.7142857
1781, -18.5, -13.2, 70.5
1782, -13, -13.2, 68
1783, -10.0408214, -13.2, 69.999577
1784, -10, -13.2, 75.8
1785, -10, -13.2, 79.6
1786, -10, -13.2, 83.4
1787, -15.575, -13.2, 86.375
1788, -17.95, -13.2, 118.321429
1789, -17.95, -13.2, 113.392857
1790, -17.95, -13.2, 108.464286
1791, -17.95, -13.2, 103.535714
1792, -17.95, -13.2, 98.6071429
1793, -17.95, -13.2, 93.6785714
1794, -15.575, -13.2, 125.625
1795, -10, -13.2, 128.6
1796, -10, -13.2, 132.4
1797, -10, -13.2, 136.2
1798, -21, -6.7, 134.285714
1799, -21, -6.7, 129.571429
1800, -21, -6.7, 124.857143
1801, -21, -6.7, 120.142857
1802, -21, -6.7, 115.428571
1803, -21, -6.7, 110.714286
1804, -21, -6.7, 106
1805, -21, -6.7, 101.285714
1806, -21, -6.7, 96.5714286
1807, -21, -6.7, 91.8571429
1808, -21, -6.7, 87.1428571
1809, -21, -6.7, 82.4285714
1810, -21, -6.7, 77.7142857
1811, -21, -9.95, 73
1812, -19, -6.7, 136
1813, -19, -6.7, 131
1814, -19, -6.7, 126
1815, -19, -6.7, 121
1816, -19, -6.7, 116
1817, -19, -6.7, 111
1818, -19, -6.7, 106
1819, -19, -6.7, 101
1820, -19, -6.7, 96
1821, -19, -6.7, 91
1822, -19, -6.7, 86
1823, -19, -6.7, 81
1824, -19, -6.7, 76
1825, -8.2, -12.8, 72.8
1826, -8.2, -12.8, 77.6
1827, -8.2, -12.8, 82.4
1828, -8.2, -12.8, 87.2
1829, -8.2, -12.8, 92
1830, -8.2, -12.8, 96.8
1831, -8.2, -12.8, 101.6
1832, -8.2, -12.8, 106.4
1833, -8.2, -12.8, 111.2
1834, -8.2, -12.8, 116
1835, -8.2, -12.8, 120.8
1836, -8.2, -12.8, 125.6
1837, -8.2, -12.8, 130.4
1838, -8.2, -12.8, 135.2
1839, -8.2, -9.75, 68
1840, -16, -10.6, 68
1841, 8.45, -12.8, 118.321429
1842, 8.45, -12.8, 113.392857
1843, 8.45, -12.8, 108.464286
1844, 8.45, -12.8, 103.535714
1845, 8.45, -12.8, 98.6071429
1846, 8.45, -12.8, 93.6785714
1847, 17.95, -10.6, 88.75
1848, 10, -12.8, 91.9
1849, 10, -12.8, 96.6
1850, 10, -12.8, 101.3
1851, 10, -12.8, 106
1852, 10, -12.8, 110.7
1853, 10, -12.8, 115.4
1854, 10, -12.8, 120.1
1855, 10, -13.8, 82.7692308
1856, 10, -13.8, 87.5384615
1857, 10, -13.8, 92.3076923
1858, 10, -13.8, 97.0769231
1859, 10, -13.8, 101.846154
1860, 10, -13.8, 106.615385
1861, 10, -13.8, 111.384615
1862, 10, -13.8, 116.153846
1863, 10, -13.8, 120.923077
1864, 10, -13.8, 125.692308
1865, 10, -13.8, 130.461538
1866, 10, -13.8, 135.230769
1867, 10, -13.5, 75
1868, 17.95, -10.6, 123.25
1869, 11, -17.2333333, 71.3333333
1870, 12, -20.4666667, 74.6666667
1871, 12, -20.4, 78
1872, 11, -17.1, 78
1873, -11, -17.1, 140
1874, -12, -20.4, 140
1875, -8.66666667, -23.7, 140
1876, -4.33333333, -23.7, 140
1877, 2.66453526e-14, -23.7, 140
1878, 4.33333333, -23.7, 140
1879, 8.66666667, -23.7, 140
1880, 12, -20.4, 140
1881, 11, -17.1, 140
1882, -4.1, -12.8, 140
1883, 3.55271368e-15, -12.8, 140
1884, 4.1, -12.8, 140
1885, 4.1, -12.8, 68
1886, -3.55271368e-15, -12.8, 68
1887, -4.1, -12.8, 68
1888, -2, -12.8, 138
1889, 2, -12.8, 138
1890, -6, -12.8, 134.5
1891, -2, -12.8, 131
1892, 2, -12.8, 131
1893, 6, -12.8, 134.5
1894, -8.45, -12.8, 93.6785714
1895, -8.45, -12.8, 98.6071429
1896, -8.45, -12.8, 103.535714
1897, -8.45, -12.8, 108.464286
1898, -8.45, -12.8, 113.392857
1899, -8.45, -12.8, 118.321429
1900, -10, -13.8, 82.7692308
1901, -10, -13.8, 87.5384615
1902, -10, -13.8, 92.3076923
1903, -10, -13.8, 97.0769231
1904, -10, -13.8, 101.846154
1905, -10, -13.8, 106.615385
1906, -10, -13.8, 111.384615
1907, -10, -13.8, 116.153846
1908, -10, -13.8, 120.923077
1909, -10, -13.8, 125.692308
1910, -10, -13.8, 130.461538
1911, -10, -13.8, 135.230769
1912, -10, -13.5, 75
1913, -10, -12.8, 91.9
1914, -10, -12.8, 96.6
1915, -10, -12.8, 101.3
1916, -10, -12.8, 106
1917, -10, -12.8, 110.7
1918, -10, -12.8, 115.4
1919, -10, -12.8, 120.1
1920, -17.95, -10.6, 88.75
1921, -17.95, -10.6, 123.25
1922, -11, -17.2333333, 71.3333333
1923, -12, -20.4666667, 74.6666667
1924, -11, -17.1, 78
1925, -12, -20.4, 78
1926, 13, -23.7, 82.7692308
1927, 13, -23.7, 87.5384615
1928, 13, -23.7, 92.3076923
1929, 13, -23.7, 97.0769231
1930, 13, -23.7, 101.846154
1931, 13, -23.7, 106.615385
1932, 13, -23.7, 111.384615
1933, 13, -23.7, 116.153846
1934, 13, -23.7, 120.923077
1935, 13, -23.7, 125.692308
1936, 13, -23.7, 130.461538
1937, 13, -23.7, 135.230769
1938, -5, -14, 68
1939, 0, -14, 68
1940, 5, -14, 68
1941, -8.66666667, -23.7, 78
1942, -4.33333333, -23.7, 78
1943, 2.66453526e-14, -23.7, 78
1944, 4.33333333, -23.7, 78
1945, 8.66666667, -23.7, 78
1946, -13, -23.7, 82.7692308
1947, -13, -23.7, 87.5384615
1948, -13, -23.7, 92.3076923
1949, -13, -23.7, 97.0769231
1950, -13, -23.7, 101.846154
1951, -13, -23.7, 106.615385
1952, -13, -23.7, 111.384615
1953, -13, -23.7, 116.153846
1954, -13, -23.7, 120.923077
1955, -13, -23.7, 125.692308
1956, -13, -23.7, 130.461538
1957, -13, -23.7, 135.230769
1958, -2, -16, 138
1959, 2, -16, 138
1960, -6, -16, 134.5
1961, 6, -16, 134.5
1962, -2, -16, 131
1963, 2, -16, 131
1964, 19, -8, 12.8461538
1965, 19, -8, 17.6923077
1966, 19, -8, 22.5384615
1967, 19, -8, 27.3846154
1968, 19, -8, 32.2307692
1969, 19, -8, 37.0769231
1970, 19, -8, 41.9230769
1971, 19, -8, 46.7692308
1972, 19, -8, 51.6153846
1973, 19, -8, 56.4615385
1974, 19, -8, 61.3076923
1975, 19, -8, 66.1538462
1976, 2.16666667, -8, 46.5793387
1977, 4.33333333, -8, 50.2355887
1978, 6.5, -8, 53.8918387
1979, 8.66666667, -8, 57.5480887
1980, 10.8333333, -8, 61.2043387
1981, -10.8333333, -8, 61.2043387
1982, -8.66666667, -8, 57.5480887
1983, -6.5, -8, 53.8918387
1984, -4.33333333, -8, 50.2355887
1985, -2.16666667, -8, 46.5793387
1986, -19, -8, 12.8461538
1987, -19, -8, 17.6923077
1988, -19, -8, 22.5384615
1989, -19, -8, 27.3846154
1990, -19, -8, 32.2307692
1991, -19, -8, 37.0769231
1992, -19, -8, 41.9230769
1993, -19, -8, 46.7692308
1994, -19, -8, 51.6153846
1995, -19, -8, 56.4615385
1996, -19, -8, 61.3076923
1997, -19, -8, 66.1538462
1998, -16, -8, 8
1999, -13, -8, 10.5697056
2000, -2.16666667, -8, 31.4206613
2001, -4.33333333, -8, 27.7644113
2002, -6.5, -8, 24.1081613
2003, -8.66666667, -8, 20.4519113
2004, -10.8333333, -8, 16.7956613
2005, 10.8333333, -8, 16.7956613
2006, 8.66666667, -8, 20.4519113
2007, 6.5, -8, 24.1081613
2008, 4.33333333, -8, 27.7644113
2009, 2.16666667, -8, 31.4206613
2010, 13, -8, 10.5697056
2011, 16, -8, 8
2012, -4.45983465, -8, 42.6028823
2013, -6.59487598, -8, 46.2057645
2014, -8.72991732, -8, 49.8086468
2015, -10.8649587, -8, 53.411529
2016, -10.8649587, -8, 24.588471
2017, -8.72991732, -8, 28.1913532
2018, -6.59487598, -8, 31.7942355
2019, -4.45983465, -8, 35.3971177
2020, -13, -8, 25.4891915
2021, -13, -8, 29.9927944
2022, -13, -8, 34.4963972
2023, -13, -8, 39
2024, -13, -8, 43.5036028
2025, -13, -8, 48.0072056
2026, -13, -8, 52.5108085
2027, 13, -8, 25.4891915
2028, 13, -8, 29.9927944
2029, 13, -8, 34.4963972
2030, 13, -8, 39
2031, 13, -8, 43.5036028
2032, 13, -8, 48.0072056
2033, 13, -8, 52.5108085
2034, 4.45983465, -8, 35.3971177
2035, 6.59487598, -8, 31.7942355
2036, 8.72991732, -8, 28.1913532
2037, 10.8649587, -8, 24.588471
2038, 10.8649587, -8, 53.411529
2039, 8.72991732, -8, 49.8086468
2040, 6.59487598, -8, 46.2057645
2041, 4.45983465, -8, 42.6028823
2042, 6.21724894e-15, -4, 42.9230887
2043, 6.21724894e-15, -1.42108547e-14, 42.9230887
2044, 2.16666667, 4, 46.5793387
2045, 4.33333333, 4, 50.2355887
2046, 6.5, 4, 53.8918387
2047, 8.66666667, 4, 57.5480887
2048, 10.8333333, 4, 61.2043387
2049, 13, -4, 64.8605887
2050, 13, -1.42108547e-14, 64.8605887
2051, -13, -4, 64.8605887
2052, -13, -1.42108547e-14, 64.8605887
2053, -10.8333333, 4, 61.2043387
2054, -8.66666667, 4, 57.5480887
2055, -6.5, 4, 53.8918387
2056, -4.33333333, 4, 50.2355887
2057, -2.16666667, 4, 46.5793387
2058, 13.6858259, 10.5, 0
2059, 9.37165172, 10.5, 0
2060, 5.05747758, 10.5, 0
2061, 18, 10.5, 4
2062, 13.5, 10.5, 8
2063, 9, 10.5, 8
2064, 4.5, 10.5, 8
2065, -5.68434189e-14, 10.5, 8
2066, -4.5, 10.5, 8
2067, -9, 10.5, 8
2068, -13.5, 10.5, 8
2069, -18, 10.5, 4
2070, -5.05747758, 10.5, 0
2071, -9.37165172, 10.5, 0
2072, -13.6858259, 10.5, 0
2073, 4.20357839e-14, 10.5, 1.57142857
2074, 5.43333333, 16, 3.66666667
2075, 5.31666667, 16, 7.33333333
2076, -4.99364251, 17.4503567, 11
2077, -4.36831826, 13.1790435, 11
2078, -0.732481727, 10.8518479, 11
2079, 3.40815896, 12.0726023, 11
2080, -2.1775, 20.8503022, 7.33335412
2081, -2.1775, 20.977911, 3.66668613
2082, -5.30278677, 17.637972, 0
2083, -4.67722813, 13.0123526, 0
2084, 4.17898517, 12.3477975, 0
2085, -18, 14.75, 4
2086, 18, 14.75, 4
2087, -18.6442932, 14.75, 4.01602644
2088, -14.5666667, 20, 3.66666667
2089, -14.6833333, 20, 7.33333333
2090, -24.9936425, 21.4503567, 11
2091, -24.3683183, 17.1790435, 11
2092, -20.7324817, 14.8518479, 11
2093, -16.591841, 16.0726023, 11
2094, -22.1775, 24.8503022, 7.33335412
2095, -22.1775, 24.977911, 3.66668613
2096, -25.1845584, 21.9806196, 0
2097, -25.0265773, 17.647125, 0
2098, -21.3557068, 14.75, 4.01602644
2099, -15.4837792, 16.774128, 0
2100, -22, 14.75, 4
2101, -19, -5, 8
2102, -13, -5, 8
2103, -16, -2, 8
2104, -13, 1, 8
2105, -13, 4, 10.5697056
2106, -13, 3.55271368e-15, 13.1394113
2107, -13, -4, 13.1394113
2108, -12, -2, 4
2109, -20, -2, 4
2110, -16, -2, 0
2111, -20, 0.75, 0
2112, -20, 0.75, 8
2113, -20, 3.5, 4
2114, -50, 3.5, 0
2115, -45, 3.5, 0
2116, -40, 3.5, 0
2117, -35, 3.5, 0
2118, -30, 3.5, 0
2119, -25, 3.5, 0
2120, -55, 3.5, 4
2121, -50, 3.5, 8
2122, -45, 3.5, 8
2123, -40, 3.5, 8
2124, -35, 3.5, 8
2125, -30, 3.5, 8
2126, -25, 3.5, 8
2127, -58, 6.5, 4
2128, -58, 7.5, 4
2129, -55, 10.5, 4
2130, -26.3141741, 10.5, 0
2131, -30.6283483, 10.5, 0
2132, -34.9425224, 10.5, 0
2133, -22, 10.5, 4
2134, -26.7142857, 10.5, 8
2135, -31.4285714, 10.5, 8
2136, -36.1428571, 10.5, 8
2137, -40.8571429, 10.5, 8
2138, -45.5714286, 10.5, 8
2139, -50.2857143, 10.5, 8
2140, -45.4955356, 10.5, 0
2141, -50.2477678, 10.5, 0
2142, -40, 10.5, 1.57142857
2143, -7.99360578e-15, -4, 35.0769113
2144, -7.99360578e-15, -1.42108547e-14, 35.0769113
2145, -2.16666667, 4, 31.4206613
2146, -4.33333333, 4, 27.7644113
2147, -6.5, 4, 24.1081613
2148, -8.66666667, 4, 20.4519113
2149, -10.8333333, 4, 16.7956613
2150, 50.2477678, 10.5, 0
2151, 45.4955356, 10.5, 0
2152, 55, 10.5, 4
2153, 50.2857143, 10.5, 8
2154, 45.5714286, 10.5, 8
2155, 40.8571429, 10.5, 8
2156, 36.1428571, 10.5, 8
2157, 31.4285714, 10.5, 8
2158, 26.7142857, 10.5, 8
2159, 22, 10.5, 4
2160, 34.9425224, 10.5, 0
2161, 30.6283483, 10.5, 0
2162, 26.3141741, 10.5, 0
2163, 40, 10.5, 1.57142857
2164, 58, 7.5, 4
2165, 58, 6.5, 4
2166, 55, 3.5, 4
2167, 25, 3.5, 0
2168, 30, 3.5, 0
2169, 35, 3.5, 0
2170, 40, 3.5, 0
2171, 45, 3.5, 0
2172, 50, 3.5, 0
2173, 20, 3.5, 4
2174, 25, 3.5, 8
2175, 30, 3.5, 8
2176, 35, 3.5, 8
2177, 40, 3.5, 8
2178, 45, 3.5, 8
2179, 50, 3.5, 8
2180, 13, -5, 8
2181, 19, -5, 8
2182, 16, -2, 8
2183, 13, 1, 8
2184, 13, 4, 10.5697056
2185, 13, 3.55271368e-15, 13.1394113
2186, 13, -4, 13.1394113
2187, 20, -2, 4
2188, 12, -2, 4
2189, 16, -2, 0
2190, 20, 0.75, 0
2191, 20, 0.75, 8
2192, 10.8333333, 4, 16.7956613
2193, 8.66666667, 4, 20.4519113
2194, 6.5, 4, 24.1081613
2195, 4.33333333, 4, 27.7644113
2196, 2.16666667, 4, 31.4206613
2197, 12, 0.75, 0
2198, 12, 0.75, 8
2199, 12, 3.5, 4
2200, -7.2, 3.5, 0
2201, -2.4, 3.5, 0
2202, 2.4, 3.5, 0
2203, 7.2, 3.5, 0
2204, -12, 3.5, 4
2205, -7.2, 3.5, 8
2206, -2.4, 3.5, 8
2207, 2.4, 3.5, 8
2208, 7.2, 3.5, 8
2209, -12, 0.75, 0
2210, -12, 0.75, 8
2211, 45.4333333, 16, 3.66666667
2212, 45.3166667, 16, 7.33333333
2213, 35.0063575, 17.4503567, 11
2214, 35.6316817, 13.1790435, 11
2215, 39.2675183, 10.8518479, 11
2216, 43.408159, 12.0726023, 11
2217, 37.8225, 20.8503022, 7.33335412
2218, 37.8225, 20.977911, 3.66668613
2219, 34.6972132, 17.637972, 0
2220, 35.3227719, 13.0123526, 0
2221, 44.1789852, 12.3477975, 0
2222, 22, 14.75, 4
2223, -34.5666667, 16, 3.66666667
2224, -34.6833333, 16, 7.33333333
2225, -44.9936425, 17.4503567, 11
2226, -44.3683183, 13.1790435, 11
2227, -40.7324817, 10.8518479, 11
2228, -36.591841, 12.0726023, 11
2229, -42.1775, 20.8503022, 7.33335412
2230, -42.1775, 20.977911, 3.66668613
2231, -45.3027868, 17.637972, 0
2232, -44.6772281, 13.0123526, 0
2233, -35.8210148, 12.3477975, 0
2234, 4.37966894, 18.8033016, 11
2235, 4.63074643, 19.0591972, 0
2236, 2.1775, 20.8503022, 7.33335412
2237, 2.1775, 20.977911, 3.66668613
2238, -2.1775, 18.2761796, 3.66666667
2239, -2.1775, 18.2761796, 7.33333333
2240, -3.09925719, 15.4368794, 11
2241, -1.23761363, 13.1033101, 11
2242, 1.73551391, 13.3712186, 11
2243, 18.6442932, 14.75, 4.01602644
2244, 21.3557068, 14.75, 4.01602644
2245, 25.4333333, 20, 3.66666667
2246, 25.3166667, 20, 7.33333333
2247, 15.0063575, 21.4503567, 11
2248, 15.6316817, 17.1790435, 11
2249, 19.2675183, 14.8518479, 11
2250, 23.408159, 16.0726023, 11
2251, 17.8225, 24.8503022, 7.33335412
2252, 17.8225, 24.977911, 3.66668613
2253, 14.8154416, 21.9806196, 0
2254, 14.9734227, 17.647125, 0
2255, 24.5162208, 16.774128, 0
2256, 44.3796689, 18.8033016, 11
2257, 44.6307464, 19.0591972, 0
2258, 42.1775, 20.8503022, 7.33335412
2259, 42.1775, 20.977911, 3.66668613
2260, 37.8225, 18.2761796, 3.66666667
2261, 37.8225, 18.2761796, 7.33333333
2262, 36.9007428, 15.4368794, 11
2263, 38.7623864, 13.1033101, 11
2264, 41.7355139, 13.3712186, 11
2265, -35.6203311, 18.8033016, 11
2266, -35.3692536, 19.0591972, 0
2267, -37.8225, 20.8503022, 7.33335412
2268, -37.8225, 20.977911, 3.66668613
2269, -42.1775, 18.2761796, 3.66666667
2270, -42.1775, 18.2761796, 7.33333333
2271, -43.0992572, 15.4368794, 11
2272, -41.2376136, 13.1033101, 11
2273, -38.2644861, 13.3712186, 11
2274, -15.6203311, 22.8033016, 11
2275, -15.3692536, 23.0591972, 0
2276, -17.8225, 24.8503022, 7.33335412
2277, -17.8225, 24.977911, 3.66668613
2278, -22.1775, 22.2761796, 3.66666667
2279, -22.1775, 22.2761796, 7.33333333
2280, -23.0992572, 19.4368794, 11
2281, -21.2376136, 17.1033101, 11
2282, -18.2644861, 17.3712186, 11
2283, 2.1775, 18.2761796, 3.66666667
2284, 2.1775, 18.2761796, 7.33333333
2285, 24.3796689, 22.8033016, 11
2286, 24.6307464, 23.0591972, 0
2287, 22.1775, 24.8503022, 7.33335412
2288, 22.1775, 24.977911, 3.66668613
2289, 17.8225, 22.2761796, 3.66666667
2290, 17.8225, 22.2761796, 7.33333333
2291, 16.9007428, 19.4368794, 11
2292, 18.7623864, 17.1033101, 11
2293, 21.7355139, 17.3712186, 11
2294, 42.1775, 18.2761796, 3.66666667
2295, 42.1775, 18.2761796, 7.33333333
2296, -37.8225, 18.2761796, 3.66666667
2297, -37.8225, 18.2761796, 7.33333333
2298, -17.8225, 22.2761796, 3.66666667
2299, -17.8225, 22.2761796, 7.33333333
2300, 22.1775, 22.2761796, 3.66666667
2301, 22.1775, 22.2761796, 7.33333333
2302, -13, -4, 20.9855887
2303, -13, -1.42108547e-14, 20.9855887
2304, -13, 4, 25.4891915
2305, -13, 4, 29.9927944
2306, -13, 4, 34.4963972
2307, -13, 4, 39
2308, -13, 4, 43.5036028
2309, -13, 4, 48.0072056
2310, -13, 4, 52.5108085
2311, -13, 3.55271368e-15, 57.0144113
2312, -13, -4, 57.0144113
2313, -2.32479331, 3.55271368e-15, 39
2314, -2.32479331, -4, 39
2315, -4.45983465, 4, 42.6028823
2316, -6.59487598, 4, 46.2057645
2317, -8.72991732, 4, 49.8086468
2318, -10.8649587, 4, 53.411529
2319, -10.8649587, 4, 24.588471
2320, -8.72991732, 4, 28.1913532
2321, -6.59487598, 4, 31.7942355
2322, -4.45983465, 4, 35.3971177
2323, 13, -4, 20.9855887
2324, 13, -1.42108547e-14, 20.9855887
2325, 13, 4, 25.4891915
2326, 13, 4, 29.9927944
2327, 13, 4, 34.4963972
2328, 13, 4, 39
2329, 13, 4, 43.5036028
2330, 13, 4, 48.0072056
2331, 13, 4, 52.5108085
2332, 13, 3.55271368e-15, 57.0144113
2333, 13, -4, 57.0144113
2334, 10.8649587, 4, 53.411529
2335, 8.72991732, 4, 49.8086468
2336, 6.59487598, 4, 46.2057645
2337, 4.45983465, 4, 42.6028823
2338, 2.32479331, 3.55271368e-15, 39
2339, 2.32479331, -4, 39
2340, 4.45983465, 4, 35.3971177
2341, 6.59487598, 4, 31.7942355
2342, 8.72991732, 4, 28.1913532
2343, 10.8649587, 4, 24.588471
2344, 13, 4, 69.6923188
2345, 13, 4, 74.5240489
2346, 13, 4, 79.3557789
2347, 13, 4, 84.187509
2348, 13, 4, 89.0192391
2349, 13, 4, 93.8509692
2350, 13, 4, 98.6826992
2351, 13, 4, 103.514429
2352, 13, 4, 108.346159
2353, 13, 4, 113.177889
2354, 13, 4, 118.00962
2355, 13, 4, 122.84135
2356, 13, 4, 127.67308
2357, 13, 4, 132.50481
2358, 13, 4, 137.33654
2359, 13, 4, 142.16827
2360, -13, 4, 69.6923188
2361, -13, 4, 74.5240489
2362, -13, 4, 79.3557789
2363, -13, 4, 84.187509
2364, -13, 4, 89.0192391
2365, -13, 4, 93.8509692
2366, -13, 4, 98.6826992
2367, -13, 4, 103.514429
2368, -13, 4, 108.346159
2369, -13, 4, 113.177889
2370, -13, 4, 118.00962
2371, -13, 4, 122.84135
2372, -13, 4, 127.67308
2373, -13, 4, 132.50481
2374, -13, 4, 137.33654
2375, -13, 4, 142.16827
2376, -19, 4, 12.9642857
2377, -19, 4, 17.9285714
2378, -19, 4, 22.8928571
2379, -19, 4, 27.8571429
2380, -19, 4, 32.8214286
2381, -19, 4, 37.7857143
2382, -19, 4, 42.75
2383, -19, 4, 47.7142857
2384, -19, 4, 52.6785714
2385, -19, 4, 57.6428571
2386, -19, 4, 62.6071429
2387, -19, 4, 67.5714286
2388, -19, 4, 72.5357143
2389, -19, 4, 77.5
2390, -19, 4, 82.4642857
2391, -19, 4, 87.4285714
2392, -19, 4, 92.3928571
2393, -19, 4, 97.3571429
2394, -19, 4, 102.321429
2395, -19, 4, 107.285714
2396, -19, 4, 112.25
2397, -19, 4, 117.214286
2398, -19, 4, 122.178571
2399, -19, 4, 127.142857
2400, -19, 4, 132.107143
2401, -19, 4, 137.071429
2402, -19, 4, 142.035714
2403, -19, 1, 8
2404, 19, 1, 8
2405, 19, 4, 12.9642857
2406, 19, 4, 17.9285714
2407, 19, 4, 22.8928571
2408, 19, 4, 27.8571429
2409, 19, 4, 32.8214286
2410, 19, 4, 37.7857143
2411, 19, 4, 42.75
2412, 19, 4, 47.7142857
2413, 19, 4, 52.6785714
2414, 19, 4, 57.6428571
2415, 19, 4, 62.6071429
2416, 19, 4, 67.5714286
2417, 19, 4, 72.5357143
2418, 19, 4, 77.5
2419, 19, 4, 82.4642857
2420, 19, 4, 87.4285714
2421, 19, 4, 92.3928571
2422, 19, 4, 97.3571429
2423, 19, 4, 102.321429
2424, 19, 4, 107.285714
2425, 19, 4, 112.25
2426, 19, 4, 117.214286
2427, 19, 4, 122.178571
2428, 19, 4, 127.142857
2429, 19, 4, 132.107143
2430, 19, 4, 137.071429
2431, 19, 4, 142.035714
2432, 16, 4, 8
2433, -16, 4, 8
2434, 14.5941312, 4, 144.875305
2435, 14.3385063, 4, 144.875305
2436, -14.5941312, 4, 144.875305
2437, -14.3385063, 4, 144.875305
2438, 14.4382624, 4.0376985, 144.75061
2439, -14.4382624, 4.0376985, 144.75061
2440, -43.0992572, 15.4368794, 0
2441, -41.2376136, 13.1033101, 0
2442, -38.2644861, 13.3712186, 0
2443, -23.0992572, 19.4368794, 0
2444, -21.2376136, 17.1033101, 0
2445, -18.2644861, 17.3712186, 0
2446, -3.09925719, 15.4368794, 0
2447, -1.23761363, 13.1033101, 0
2448, 1.73551391, 13.3712186, 0
2449, 16.9007428, 19.4368794, 0
2450, 18.7623864, 17.1033101, 0
2451, 21.7355139, 17.3712186, 0
2452, 36.9007428, 15.4368794, 0
2453, 38.7623864, 13.1033101, 0
2454, 41.7355139, 13.3712186, 0
2455, -52.5540466, -17.538555, 244.217871
2456, -47.0893198, -17.0583701, 244.618025
2457, -60.3390179, -12.3975261, 244.028844
2458, -56.3831978, -16.1807976, 244.107275
2459, -31.3218688, -16, 223.473862
2460, 31.3218688, -16, 223.473862
2461, -2.35714286, -16, 223.082691
2462, -22.5, -16, 233.669873
2463, 22.5, -16, 233.669873
2464, 6.41223757, -16, 223.637337
2465, -11.7857143, -16, 223.082691
2466, 16.5, -16, 223.082691
2467, 2.50608838, -16, 233.75879
2468, -7.5, -16, 233.669873
2469, 12.5344149, -16, 234.330245
2470, -21.2318265, -16, 223.204486
2471, -32.5, -16, 233.669873
2472, 32.9999797, -16, 234.509361
2473, -25.9285714, -16, 223.082691
2474, -27.9894308, -16, 226.826981
2475, 26.4014708, -16, 223.545892
2476, 28.4331252, -16, 226.888768
2477, 23.653636, -16, 226.944977
2478, -33.1379809, -16, 227.965085
2479, 21.2142857, -16, 223.082691
2480, 18.5625415, -16, 226.651958
2481, 14.061922, -16, 227.211851
2482, 33.7362588, -16, 227.638616
2483, -36.9042488, -16, 231.029689
2484, 37.3724892, -16, 230.969712
2485, -27.475582, -16, 233.683971
2486, 28.0031815, -16, 234.494857
2487, 17.8681853, -16, 234.291208
2488, 7.53888573, -16, 234.089629
2489, 5.48503913, -16, 228.887059
2490, 0.182077766, -16, 229.782617
2491, 2.55439352, -16, 225.178517
2492, -2.41896791, -16, 233.763908
2493, -5.02554553, -16, 230.300425
2494, -9.74882987, -16, 229.945996
2495, -12.4789036, -16, 233.682248
2496, -14.9319529, -16, 229.908496
2497, -17.6056602, -16, 233.984714
2498, -20.7193966, -16, 230.295912
2499, -7.22124873, -16, 225.091449
2500, 9.91338889, -16, 229.417862
2501, -16.3457655, -16, 222.993644
2502, -23.5714286, -16, 227.094424
2503, 11.7857143, -16, 223.037588
2504, -41.1201398, -16, 234.129063
2505, 41.1201398, -16, 234.129063
2506, 48.3474211, -16, 241.11355
2507, -48.3460357, -16, 241.117956
2508, -24.9962826, -16, 230.679924
2509, 37.7299432, -16, 235.282463
2510, -37.3889097, -16, 234.811977
2511, -17.5340656, -16, 226.546401
2512, -29.6950735, -16, 230.37754
2513, 21.2035151, -16, 230.11843
2514, 14.9477144, -16, 230.843979
2515, -47.2878358, -16, 243.648063
2516, 47.3662443, -16, 243.633543
2517, 9.45457883, -16, 225.778498
2518, -2.34053626, -16, 226.66481
2519, 2.28583429, -16, 221.617847
2520, -7.12131657, -16, 221.570976
2521, 30.1953244, -16, 230.820986
2522, -12.1008539, -16, 226.572376
2523, 26.4337248, -16, 230.849869
2524, 51.3965319, -16, 243.980401
2525, -51.3965319, -16, 243.980401
2526, 34.0882173, -19, 220.402908
2527, -34.0882173, -19, 220.402908
2528, 4.8, -19, 220.156922
2529, -4.79564841, -19, 220.341962
2530, 14.4, -19, 220.156922
2531, -14.4290066, -19, 220.298669
2532, 24.1260735, -19, 220.445134
2533, -24, -19, 220.156922
2534, 14.8093397, -19, 239.059242
2535, -14.8235294, -19, 238.720816
2536, 5.77673695, -19, 239.054149
2537, -4.94117647, -19, 238.720816
2538, 39.8024734, -19, 228.117215
2539, 25.1186256, -19, 238.83047
2540, -39.8024734, -19, 228.117215
2541, -24.8647158, -19, 239.104704
2542, -39.5294118, -19, 238.839682
2543, 38.8426934, -19, 237.67616
2544, -45.5167592, -19, 235.831501
2545, 45.5167592, -19, 235.831501
2546, 29.1834776, -19, 220.546649
2547, 26.3133905, -19, 224.489563
2548, 31.7256008, -19, 224.7862
2549, 29.0394647, -19, 229.048671
2550, 24.235096, -19, 229.442409
2551, 33.8801099, -19, 228.943577
2552, 31.4282866, -19, 233.045175
2553, 36.5064074, -19, 233.380537
2554, -28.8, -19, 220.156922
2555, -26.4, -19, 224.332667
2556, -21.5714283, -19, 224.330308
2557, -25.0794245, -19, 230.313872
2558, -19.3660204, -19, 228.963191
2559, -28.8338015, -19, 228.527956
2560, -21.5560593, -19, 232.737478
2561, -16.6844992, -19, 232.734429
2562, -14.3233806, -19, 228.748082
2563, -11.8083673, -19, 232.721747
2564, -9.40678292, -19, 228.650856
2565, -6.93201802, -19, 232.708163
2566, -4.51182369, -19, 228.56079
2567, -2.0557219, -19, 232.694523
2568, 0.370611007, -19, 228.464745
2569, 2.82050416, -19, 232.68088
2570, 5.24680166, -19, 228.451163
2571, 7.18671385, -19, 234.035726
2572, 10.2495324, -19, 228.35545
2573, 12.4345611, -19, 232.396529
2574, 15.1322935, -19, 228.48193
2575, 17.4839035, -19, 232.755858
2576, 33.7529288, -19, 237.59763
2577, 21.6411744, -19, 224.903836
2578, 41.2435413, -19, 232.886229
2579, 19.1546228, -19, 220.415166
2580, 10.1555887, -19, 236.882642
2581, 7.69376301, -19, 224.382948
2582, 26.7118853, -19, 233.456024
2583, -2.07925615, -19, 224.258157
2584, 2.78128906, -19, 224.358464
2585, 0.0718556424, -19, 220.387775
2586, -19.8712631, -19, 239.1314
2587, 19.0965306, -19, 237.230661
2588, 21.6688213, -19, 232.818144
2589, 0.0567181008, -19, 239.386903
2590, -9.8907435, -19, 238.72566
2591, -11.8320873, -19, 224.285335
2592, -6.99558134, -19, 224.402385
2593, -9.58760382, -19, 220.259978
2594, -34.6019673, -19, 238.690977
2595, -37.157884, -19, 234.590774
2596, -32.2693616, -19, 234.45564
2597, -34.7933285, -19, 230.274667
2598, -29.8585674, -19, 238.973833
2599, -26.7847437, -19, 234.036447
2600, -31.2617518, -19, 224.200232
2601, -36.0306987, -19, 224.799331
2602, 36.4444334, -19, 224.527344
2603, -42.6596163, -19, 231.974358
2604, -19.2555635, -19, 220.300728
2605, -16.8158744, -19, 224.618335
2606, 9.66354385, -19, 220.117753
2607, 28.9093859, -19, 236.809991
2608, 12.7943419, -19, 224.425808
2609, -48.9066168, -19, 239.508513
2610, 48.9066168, -19, 239.508513
2611, 19.7010052, -19, 228.89912
2612, 17.2969647, -19, 224.528025
2613, 44.3021577, -19, 239.666366
2614, -44.3333333, -19, 239.640666
2615, -41.730264, -19, 235.606735
2616, -32.3871386, -19, 227.565174
2617, -29.7273045, -19, 231.623608
2618, -39.1002036, -19, 231.525752
2619, 41.9869758, -19, 236.268543
2620, 9.83105075, -19, 240.411101
2621, -22.2377016, -19, 236.179905
2622, -2.4638983, -19, 236.174366
2623, 2.4722725, -19, 236.166353
2624, -7.4184518, -19, 236.177266
2625, -12.3087092, -19, 236.189751
2626, -17.2924196, -19, 236.180401
2627, 14.9978354, -19, 235.19087
2628, 29.5663947, -19, 240.19114
2629, 44.0326377, -19, 230.869956
2630, -39.584372, -7.71790782, 222.033828
2631, -51.2357789, -7.12977207, 235.711567
2632, -57.0936634, 12, 242.588214
2633, -43.8290671, 9.4664576, 227.016731
2634, -46.2051126, 11.4066651, 229.806002
2635, -39.9366914, -3.88035431, 222.44742
2636, -38.5014821, 9.07282116, 220.762609
2637, -46.0916388, 7.30718511, 229.672793
2638, -56.638887, 2.40635583, 242.054346
2639, -48.4612687, 9.22070008, 232.454533
2640, -48.3415307, 5.15231228, 232.313971
2641, -43.8974668, 5.48006085, 227.097026
2642, -48.8740992, -7.42466026, 232.93916
2643, -57.7579732, -6.92659446, 243.368056
2644, -49.5631143, 18.5778107, 233.748004
2645, -50.6493093, 7.05236795, 235.023102
2646, -50.4295885, 2.8942602, 234.765169
2647, -57.0936634, 21.4632972, 242.588214
2648, -48.4777273, 1.15274932, 232.473854
2649, -50.7712921, 11.180094, 235.166299
2650, -52.7507276, 8.43789567, 237.489985
2651, -39.8775656, 6.33302531, 222.378012
2652, -52.9328525, 12.790484, 237.703783
2653, -50.4753274, -1.12107523, 234.818863
2654, -52.7486133, 0.812703315, 237.487503
2655, -57.4207597, -2.07141351, 242.972196
2656, -55.4458455, -4.97447294, 240.653819
2657, -45.3963214, -6.88111533, 228.856551
2658, -42.0189049, -7.24640943, 224.891758
2659, -42.7466007, -2.96137558, 225.746009
2660, -40.4380677, -0.0443338956, 223.035993
2661, -45.4006335, -2.218584, 228.861613
2662, -52.7013992, -3.19977397, 237.432077
2663, -47.3261969, 16.4753571, 231.122057
2664, -43.2917633, 0.989809752, 226.385983
2665, -57.3854532, 7.38868362, 242.930749
2666, -54.8217432, 5.37723913, 239.921177
2667, -52.035721, 21.3293985, 236.650629
2668, -57.4189945, 16.8927893, 242.970124
2669, -57.0936634, 26.1949458, 242.588214
2670, -41.7935745, 7.79174234, 224.62724
2671, -54.9786528, 19.5170198, 240.105375
2672, -54.7499161, 23.9905778, 239.836858
2673, -46.0317968, 3.33878442, 229.602544
2674, -39.9691951, 9.83979982, 222.485577
2675, -58.1758725, -9.10669686, 243.858633
2676, -55.0552676, -1.19177658, 240.195314
2677, -48.3164299, -3.55896755, 232.284505
2678, -48.5978877, 13.3774072, 232.614912
2679, -53.9435874, -7.73395688, 238.890298
2680, -50.9171153, 15.2497164, 235.337483
2681, -41.5644973, 3.64516597, 224.358323
2682, -52.7196125, 4.71835355, 237.453458
2683, -38.6964765, -0.945547533, 220.991516
2684, -39.1112916, 2.57965822, 221.478473
2685, -50.7697617, -4.10158339, 235.164503
2686, -55.3470776, 9.64565749, 240.537874
2687, -55.384425, 14.3538428, 240.581716
2688, -52.6694396, 17.9491129, 237.39456
2689, -56.1278193, -7.96313955, 241.454397
2690, -54.6316009, 1.8168534, 239.697966
2691, -58.7455854, 31.0757089, 244.527426
2692, -53.7366172, -13.8044232, 241.754913
2693, -36.8476542, -13.8476542, 221.080606
2694, -38.5025207, -14.3073875, 223.675797
2695, -50.8886329, -14.030905, 238.537615
2696, -56.4995082, -15.7237171, 239.251354
2697, -53.4375473, -15.9618362, 235.439168
2698, -40.7060981, -16.2861971, 218.689599
2699, -50.7193809, -16.1072638, 231.96597
2700, -47.7586595, -16.2763697, 228.197289
2701, -44.7880547, -16.4520877, 224.424192
2702, -42.7272614, -16.3970572, 221.56783
2703, -43.05, -14.05, 245.925
2704, -43.5, -14.5, 240.053571
2705, 43.05, -14.05, 245.925
2706, 47.0893198, -17.0583701, 244.618025
2707, 60.3390179, -12.3975261, 244.028844
2708, 56.3831978, -16.1807976, 244.107275
2709, 53.8521044, -13.7742995, 241.859678
2710, 36.8476542, -13.8476542, 221.080606
2711, 38.4867951, -14.3262102, 223.679597
2712, 50.9309347, -14.0077117, 238.561066
2713, 26.7529603, -16.2212475, 215.902535
2714, -25.8197892, -16.2408775, 215.627715
2715, 17.9773979, -17.0452253, 204.366846
2716, -18.6722353, -16.9984621, 205.021531
2717, 2.43257134, -17.7411201, 194.624319
2718, -7.15196702, -16.2580913, 215.386721
2719, 16.5, -16.2908797, 214.927684
2720, -16.7031933, -16.2573002, 215.397798
2721, 7.10829471, -16.2789045, 215.095338
2722, 14.0788043, -17.4755674, 198.342056
2723, 11.8414567, -17.4722874, 198.387977
2724, 13.0055728, -17.3165832, 200.567836
2725, 10.2735862, -17.3128421, 200.62021
2726, 11.6887394, -17.1324787, 203.145298
2727, 8.60656529, -17.1257966, 203.238847
2728, -6.63330903, -17.799441, 193.807826
2729, 10.2039854, -16.930643, 205.970999
2730, 6.75113159, -16.9461849, 205.753411
2731, 5.02363258, -17.1373179, 203.077549
2732, 2.94193937, -16.9164938, 206.169087
2733, 1.07156002, -17.1275039, 203.214946
2734, -0.871906031, -16.8947495, 206.473507
2735, 9.02030543, -17.4942527, 198.080462
2736, -2.9709102, -17.1571834, 202.799432
2737, -4.97624964, -16.8985954, 206.419664
2738, -7.15533247, -17.1376994, 203.072209
2739, -9.09689775, -16.8941256, 206.482242
2740, -11.3069907, -17.0780648, 203.907093
2741, 3.33256461, -17.3649992, 199.890012
2742, 1.4982062, -16.6116642, 210.436701
2743, -12.9175233, -16.8796818, 206.684455
2744, -15.7573149, -17.3066645, 200.706697
2745, -11.0030912, -16.6935401, 209.290438
2746, -9.55089211, -17.3694714, 199.8274
2747, 13.5753699, -16.9079038, 206.289347
2748, 11.9229986, -16.7198101, 208.922659
2749, 15.4539231, -16.7246765, 208.854529
2750, -14.8891599, -16.6748007, 209.552791
2751, -14.0788043, -17.4755674, 198.342056
2752, -10.9759184, -17.6818865, 195.453589
2753, 11.0111108, -17.6776335, 195.513132
2754, -20.5163919, -16.7959103, 207.857255
2755, -22.2894197, -16.5505835, 211.291832
2756, 20.6505352, -16.7800298, 208.079583
2757, 7.51758481, -17.7082979, 195.08383
2758, -20.8875655, -16.2785138, 215.100807
2759, -5.58078274, -17.3791758, 199.691538
2760, -2.32944641, -17.7393216, 194.649498
2761, -1.57948997, -17.417194, 199.159284
2762, 15.9217854, -17.2858, 200.9988
2763, 21.434059, -16.274974, 215.150364
2764, 24.0319022, -16.5223475, 211.687135
2765, 12.0238872, -16.2423173, 215.607558
2766, -11.9538894, -16.2324521, 215.745671
2767, 2.2911355, -16.3134539, 214.611645
2768, -2.3918953, -16.2894502, 214.947697
2769, -2.74780816, -16.5768026, 210.924764
2770, -6.88601192, -16.6720599, 209.591161
2771, 13.7503039, -16.4944702, 212.077417
2772, -14.2857136, -17.1052319, 203.526754
2773, 9.58931787, -16.5450083, 211.369883
2774, 5.32284664, -16.5692048, 211.031133
2775, 19.2423963, -16.5300589, 211.579175
2776, -18.5448671, -16.5872334, 210.778733
2777, -13.0732669, -17.2918362, 200.914293
2778, -11.8322065, -17.4719069, 198.393304
2779, 7.07160537, -17.3277855, 200.411002
2780, -16.4077578, -17.4571519, 198.599874
2781, 14.9674565, -17.0931313, 203.696162
2782, -16.1120848, -16.9001397, 206.398045
2783, -8.52508831, -17.5806568, 196.870805
2784, 16.236413, -17.4765911, 198.327724
2785, 8.56779911, -16.7503923, 208.494508
2786, 5.68080196, -17.5120739, 197.830965
2787, 17.9109261, -16.8408383, 207.228263
2788, -5.20753403, -16.45186, 212.67396
2789, -14.1219145, -16.4493451, 212.709168
2790, -10.6649911, -17.8723765, 192.786729
2791, -9.28480928, -16.4608004, 212.548794
2792, 10.6972498, -17.8624077, 192.926292
2793, 15.8984156, -16.9464091, 205.750272
2794, -4.5327482, -17.5690875, 197.032775
2795, -0.0953075628, -16.4491279, 212.712209
2796, 1.09957096, -17.5406911, 197.430325
2797, -16.5975659, -17.1354624, 203.103526
2798, 4.97924222, -16.7719504, 208.192694
2799, 34.5882353, -19, 245.5
2800, 39.5294118, -19, 245.5
2801, -34.5882353, -19, 245.5
2802, -19.7647059, -19, 245.5
2803, -24.7058824, -19, 245.5
2804, -39.5294118, -19, 245.5
2805, -29.6470588, -19, 245.5
2806, 14.8235294, -19, 245.5
2807, 24.7058824, -19, 245.5
2808, 0, -19, 245.5
2809, 19.7647059, -19, 245.5
2810, 9.88235294, -19, 245.5
2811, -9.88235294, -19, 245.5
2812, -14.8235294, -19, 245.5
2813, -4.94117647, -19, 245.5
2814, 4.94117647, -19, 245.5
2815, 29.6470588, -19, 245.5
2816, -39.3773385, -15.8900412, 248
2817, 39.3773385, -15.8900412, 248
2818, 2.25278421e-12, -15.4987992, 248
2819, 4.9274821, -15.4980062, 248
2820, -4.9274821, -15.4980062, 248
2821, 9.85610541, -15.4966908, 248
2822, -9.85610541, -15.4966908, 248
2823, 14.7849189, -15.4952984, 248
2824, -14.7849189, -15.4952984, 248
2825, 19.7137641, -15.4939033, 248
2826, -19.7137641, -15.4939033, 248
2827, 24.6426146, -15.4925177, 248
2828, -24.6426146, -15.4925177, 248
2829, 29.571466, -15.4911437, 248
2830, -29.571466, -15.4911437, 248
2831, 34.5023606, -15.5635308, 248
2832, -34.5023606, -15.5635308, 248
2833, -42.1430121, -15.9047343, 248
2834, 42.1430121, -15.9047343, 248
2835, -9.6, -19.2961684, 211.853642
2836, 9.6, -19.2961684, 211.853642
2837, 18.5776708, -20.3192798, 197.530083
2838, -18.5862475, -20.3182214, 197.5449
2839, -5.41707365e-14, -20.7003058, 192.195719
2840, -19.3394492, -19.2630594, 212.317169
2841, 19.3149894, -19.2706775, 212.210515
2842, -0.0137740936, -19.2754235, 212.144071
2843, -14.2018734, -20.8182287, 190.544798
2844, 14.2018381, -20.8182985, 190.543821
2845, -12.5950955, -20.8201622, 190.51773
2846, 12.7679413, -20.7934166, 190.892168
2847, -13.3847015, -20.7005547, 192.192234
2848, 13.3847015, -20.7005547, 192.192234
2849, 11.1221243, -20.6977677, 192.231253
2850, 12.2952341, -20.5268193, 194.62453
2851, 9.31426864, -20.5288858, 194.595599
2852, 10.754468, -20.3199979, 197.52003
2853, 7.28697227, -20.3185647, 197.540094
2854, 8.94088947, -20.0905716, 200.731997
2855, 5.05151986, -20.0990459, 200.613358
2856, -11.1539361, -20.6767856, 192.525002
2857, -12.4215893, -20.5158345, 194.778317
2858, -9.28845075, -20.5197681, 194.723247
2859, -10.8077523, -20.3160468, 197.575345
2860, -7.41692041, -20.3224372, 197.485879
2861, -9.07026118, -20.0961502, 200.653897
2862, -5.41413831, -20.1126746, 200.422556
2863, -12.8254888, -20.0710367, 201.005486
2864, 12.7598844, -20.0783308, 200.903368
2865, -7.15906171, -19.8709987, 203.806018
2866, -3.32556036, -19.8687439, 203.837586
2867, 6.93338624, -19.8153712, 204.584803
2868, 23.4903915, -19.8027908, 204.760929
2869, -23.4903915, -19.8027908, 204.760929
2870, -5.12157154, -19.6388114, 207.056641
2871, -1.44882458, -20.133985, 200.12421
2872, 2.62675368, -19.849315, 204.10959
2873, -5.85821166, -20.530301, 194.575786
2874, 4.63492489, -19.5821511, 207.849884
2875, 5.63090579, -20.5633567, 194.113006
2876, -15.4945897, -20.697864, 192.229904
2877, 15.5165953, -20.6958621, 192.257931
2878, -20.836941, -20.1142565, 200.400409
2879, -18.9570963, -19.819856, 204.522016
2880, -16.9493507, -20.0919893, 200.71215
2881, 20.836941, -20.1142565, 200.400409
2882, 18.9550181, -19.8197661, 204.523274
2883, -14.8033699, -19.8379582, 204.268586
2884, -9.16775687, -19.5914145, 207.720197
2885, -0.932681948, -19.7095442, 206.066381
2886, 16.9487637, -20.0919572, 200.7126
2887, -14.1909339, -19.2875686, 211.97404
2888, 14.2985654, -19.2725564, 212.184211
2889, 11.9939581, -19.5587646, 208.177296
2890, 16.3057687, -19.5553053, 208.225726
2891, 4.94039513, -19.3406173, 211.231358
2892, -5.02087226, -19.2560404, 212.415434
2893, 14.270461, -20.3185036, 197.54095
2894, -16.6594454, -19.57174, 207.99564
2895, 14.8193411, -19.8495383, 204.106464
2896, 10.8062875, -19.8507004, 204.090195
2897, 23.9129539, -19.2925878, 211.90377
2898, -24, -19.2961684, 211.853642
2899, 28.8791336, -19.2738866, 212.165587
2900, -28.9424323, -19.2724286, 212.185999
2901, -26.7377757, -19.5660017, 208.075976
2902, -14.1605177, -20.3186904, 197.538335
2903, -21.0205754, -19.5373593, 208.476969
2904, 21.0212696, -19.5380884, 208.466762
2905, -11.0509165, -19.8413615, 204.220939
2906, -3.71140243, -20.3479818, 197.128254
2907, 0.167887914, -20.4351417, 195.908016
2908, 26.4387049, -19.5603632, 208.154915
2909, -10.0607278, -20.8346184, 190.315343
2910, 9.71428571, -20.886531, 189.588566
2911, -13.1738562, -19.5483427, 208.323203
2912, -15.9408181, -20.4944571, 195.0776
2913, 15.9882577, -20.4962445, 195.052577
2914, 8.20000215, -19.5564078, 208.210291
2915, 3.80240494, -20.3510195, 197.085726
2916, -7.75685732, -20.7256545, 191.840837
2917, -4.19542932, -20.7631627, 191.315722
2918, 8.27971767, -20.7186624, 191.938726
2919, 4.92467821, -20.7588667, 191.375866
2920, 11.4713235, -20.8995109, 189.406847
2921, 1.8970345, -20.1613694, 199.740828
2922, -6.88470875, -19.4486499, 209.718902
2923, 2.66971556, -20.5358727, 194.497782
2924, -2.69217363, -20.568872, 194.035792
2925, -0.182830586, -19.9355603, 202.902156
2926, 16.5089286, -20.8233011, 190.473785
2927, -16.4816056, -20.8195328, 190.52654
2928, -2.77552879, -19.4670434, 209.461393
2929, 1.6346872, -19.5459001, 208.357398
2930, 56.4995082, -15.7237171, 239.251354
2931, 53.4375473, -15.9618362, 235.439168
2932, 40.7234823, -16.2234823, 218.628402
2933, 50.7193809, -16.1072638, 231.96597
2934, 47.7586595, -16.2763697, 228.197289
2935, 44.7880547, -16.4520877, 224.424192
2936, 42.6921295, -16.4113301, 221.539671
2937, -60.0597329, 36.4188158, 244.146114
2938, -56.4204001, 40.0465347, 244.151393
2939, -60.9087108, 29.0368609, 240.433418
2940, -43.2719883, -9.67924252, 218.788349
2941, -49.3319057, 16.407619, 226.225521
2942, -51.8437015, -8.69113396, 229.308179
2943, -59.8861282, 9.39835345, 239.17843
2944, -43.7330693, 1.15937144, 219.354221
2945, -60.3741849, 19.2, 239.777409
2946, -60.2418328, 0.353576774, 239.614977
2947, -45.4254001, 12.5696099, 221.431173
2948, -53.9626277, 21.4593158, 231.908679
2949, -44.3382756, -5.77526672, 220.096975
2950, -57.6387601, -8.12034474, 236.420296
2951, -44.3521881, 9.46449515, 220.114049
2952, -46.6648002, 9.19838381, 222.952255
2953, -45.0780325, 5.66236937, 221.004858
2954, -47.6947854, 5.48755762, 224.216328
2955, -49.1546222, 8.9308627, 226.007945
2956, -50.3302624, 5.18448274, 227.450777
2957, -51.8181599, 8.69014685, 229.276833
2958, -53.0383764, 4.84803707, 230.774371
2959, -48.8438512, 1.66007069, 225.626545
2960, -54.5841523, 8.48505531, 232.67146
2961, -53.3617161, 12.3580255, 231.171197
2962, -55.8408255, 4.50473065, 234.21374
2963, -54.2491746, 0.780569855, 232.260351
2964, -56.1127729, 12.2019182, 234.547494
2965, -54.5705144, 15.8260267, 232.654722
2966, -57.9721173, 16.483709, 236.829417
2967, -46.1875665, 2.05918721, 222.366559
2968, -47.6073254, -1.49390768, 224.10899
2969, -48.8034305, -9.05857652, 225.576937
2970, -49.8067161, -2.47171799, 226.808242
2971, -60.3571678, 24.0551429, 239.756524
2972, -58.3386553, 22.2480501, 237.279259
2973, -57.4838169, 0.596997359, 236.230139
2974, -55.486443, -3.35345819, 233.778816
2975, -58.7283484, 4.22679684, 237.757519
2976, -55.0700496, -8.41427825, 233.267788
2977, -51.5083111, 18.9158816, 228.896564
2978, -60.494379, 14.4702692, 239.92492
2979, -57.4375284, 8.34797925, 236.17333
2980, -60.3837662, -4.77372784, 239.789168
2981, -48.1264223, 12.4773272, 224.746064
2982, -50.5094055, 12.3423204, 227.670634
2983, -45.7706017, -9.26428173, 221.854829
2984, -51.5626866, 1.25009375, 228.963297
2985, -52.4727773, -2.93160004, 230.080227
2986, -58.0887848, 26.6757481, 236.9726
2987, -47.3831643, -5.67500549, 223.833883
2988, -56.0280556, 24.5593475, 234.443523
2989, -52.1067604, 15.4734862, 229.631024
2990, -42.7851015, 5.29560482, 218.190806
2991, -57.9999334, -3.28463893, 236.863555
2992, -55.9741951, 19.4023097, 234.377421
2993, -58.6023937, 12.3705388, 237.602938
2994, -43.0537653, -2.50298053, 218.52053
2995, -44.9294298, -1.42212717, 220.822482
2996, -50.3717532, -5.93679465, 227.501697
2997, -46.7980084, 15.0003058, 223.115738
2998, -61.1043224, 4.8, 240.673487
2999, -60.6484937, -8.60753906, 240.11406
3000, -53.3470127, -6.19417046, 231.153152
3001, -42.2721392, 9.55467689, 217.561262
3002, -53.4521547, 18.4543772, 231.28219
3003, -36.7079249, 11.7079249, 219.796415
3004, -34.6162956, 13.794302, 219.793461
3005, -35.6929096, 17.2922986, 221.32684
3006, -36.4366238, 13.3642593, 216.73729
3007, -38.6976425, 20.3250833, 222.75808
3008, -36.0889513, 18.2356038, 221.904809
3009, -36.4365732, 18.7199873, 220.339149
3010, -41.2899187, 20.3514048, 224.298282
3011, -40.7079304, 11.5966081, 218.706531
3012, -44.5362111, 15.9610779, 224.142444
3013, -43.471491, 13.1268922, 221.997704
3014, -35.7530939, 17.4018058, 219.584217
3015, -43.4079271, 19.0039478, 224.604103
3016, -41.6162916, 11.8068686, 221.118709
3017, -38.2163315, 11.9186024, 218.293737
3018, -37.2577288, 19.5677358, 221.545996
3019, -38.3614855, 11.8939509, 215.930767
3020, -39.8527395, 11.5697328, 216.770775
3021, -35.7916943, 17.4307646, 217.63564
3022, -55.9086851, 35.654488, 244.066785
3023, -42.8146259, 21.7346556, 228.871471
3024, -48.5688046, 27.7955719, 235.517462
3025, -45.6242966, 23.5373591, 231.465931
3026, -52.9432604, 33.0875138, 240.95481
3027, -50.6937319, 30.3476174, 238.148259
3028, -46.5850522, 25.9033143, 233.337206
3029, -20.7730311, -11.8070561, 198.347494
3030, -29.1716744, -9.32886983, 209.036676
3031, -24.4458988, -8.2387561, 203.022053
3032, -32.0410766, -0.471358325, 212.688643
3033, -34.2883073, -5.54372416, 215.548755
3034, -23.2061266, -10.99741, 201.444161
3035, -26.6265061, -6.38078336, 205.797371
3036, -29.795123, -3.58183071, 209.830157
3037, -31.4506127, -6.53984501, 211.937143
3038, -34.3476202, 2.2633964, 215.624244
3039, -34.6228563, -9.86427643, 215.974544
3040, -26.5516237, -10.3248576, 205.702066
3041, -34.6354627, -1.54472235, 215.990589
3042, -32.2353087, -10.205547, 212.935847
3043, -21.5065326, -9.59460908, 199.281041
3044, -32.6639931, -3.73964686, 213.481446
3045, -33.29986, -14.29986, 216.759552
3046, -29.6723671, -14.6589879, 211.530168
3047, -35.3102173, -17.6960178, 212.716152
3048, -28.4322008, -17.9864425, 201.866001
3049, -36.9774021, -16.8999146, 214.150875
3050, -44.430607, -13.742448, 247.381293
3051, -51.3539026, -13.0253239, 247.487338
3052, 50.0065716, -13.0935747, 247.453213
3053, 44.1941048, -13.2697162, 247.365142
3054, -44.1941048, -13.2697162, 247.365142
3055, -34.8497806, -13, 243.109706
3056, 34.958328, -13, 242.524017
3057, 24.6994646, -13, 242.761116
3058, -14.8299471, -13, 242.753037
3059, -4.94445082, -13, 242.913425
3060, 14.810694, -13, 242.75
3061, 4.92834104, -13, 242.75
3062, -24.7058824, -13, 242.588124
3063, -9.88350676, -13, 242.65956
3064, 29.7076713, -13, 242.714189
3065, -29.6906497, -13, 242.782972
3066, 9.87807446, -13, 242.75
3067, 19.761497, -13, 242.751853
3068, -19.7657755, -13, 242.723527
3069, -0.00268496269, -13, 242.777238
3070, -38.4422519, -13, 241.6523
3071, 38.5410068, -13, 243.893392
3072, 39.0881403, -13, 240.845344
3073, -39.0585256, -13, 244.680287
3074, 39.0549576, -7.83765827, 221.412342
3075, 50.9223175, -7.15673827, 235.34359
3076, 47.0845633, 17.1359559, 230.8384
3077, 57.0936634, 2.53670277, 242.588214
3078, 39.5071589, -0.95279815, 221.943186
3079, 38.4141746, 9.09301818, 220.660118
3080, 57.0936634, 12, 242.588214
3081, 42.9138542, 9.22007776, 225.942351
3082, 45.180227, 10.4803404, 228.602875
3083, 48.3574489, -7.52008215, 232.332657
3084, 49.5897746, -3.69758215, 233.779301
3085, 44.7573083, 6.81270178, 228.106405
3086, 47.1282065, 8.13866562, 230.889634
3087, 52.405385, 21.8111377, 237.084582
3088, 58.2301987, -7.52455278, 243.922407
3089, 47.0930924, -3.89784307, 230.848413
3090, 52.125344, -3.46054206, 236.755839
3091, 50.3665016, -0.350518389, 234.691111
3092, 46.6178359, 4.36156247, 230.290503
3093, 44.2802695, 3.04685803, 227.546403
3094, 39.8109761, 3.60892594, 222.299842
3095, 48.9188374, 5.66265739, 232.991679
3096, 49.3557217, 9.41487134, 233.504543
3097, 51.2898149, 6.99782345, 235.775
3098, 51.3850981, 10.6612753, 235.886854
3099, 49.5265167, 13.0936909, 233.705041
3100, 51.9995392, 14.5028057, 236.608155
3101, 57.0936634, 21.4632972, 242.588214
3102, 53.6870212, 8.34447829, 238.589112
3103, 53.2567612, 4.40302198, 238.084024
3104, 50.1748335, 16.9022506, 234.466109
3105, 48.2008618, -0.439095684, 232.148838
3106, 53.1772334, -6.60907277, 237.990665
3107, 54.7057855, -2.72263597, 239.785053
3108, 40.6342936, 7.88707518, 223.266345
3109, 57.2191309, 7.7050753, 242.735501
3110, 57.1628445, 16.5468663, 242.669426
3111, 41.509824, -7.7221293, 224.294141
3112, 44.4441632, -7.40301743, 227.7388
3113, 42.8569978, -3.72557052, 225.875606
3114, 47.7873596, 12.0461997, 231.663422
3115, 45.7813389, 13.6555442, 229.308528
3116, 54.9650093, 19.3888171, 240.089359
3117, 54.6261197, 24.1376759, 239.691532
3118, 57.9570768, 27.0105752, 243.601786
3119, 41.7940691, 1.19860897, 224.62782
3120, 54.7553143, 14.3592923, 239.843195
3121, 48.6143049, 15.6795481, 232.634184
3122, 45.3133487, 16.6778261, 228.759149
3123, 45.5398844, -0.332759679, 229.025082
3124, 50.8251442, 3.08673422, 235.229517
3125, 57.3377222, -2.90565173, 242.874717
3126, 41.9072694, 5.11222762, 224.760708
3127, 39.7651634, 9.73452207, 222.246061
3128, 52.5412991, 18.0699906, 237.244134
3129, 52.7260538, -0.0163262368, 237.46102
3130, 40.6154576, -4.49452898, 223.244233
3131, 48.4278352, 18.5786431, 232.415285
3132, 54.8326203, 1.88172883, 239.933946
3133, 47.1003114, 14.5293678, 230.856887
3134, 55.7501715, -5.60371947, 241.011071
3135, 55.3676546, 5.10875326, 240.562029
3136, 55.3596375, 11.124213, 240.552618
3137, 48.8030359, 2.48074289, 232.855738
3138, 38.8922301, 6.35212638, 221.221314
3139, 50.5675803, 20.1872264, 234.927159
3140, 45.9518685, 15.3332854, 229.508715
3141, 44.8229699, -3.26136606, 228.183486
3142, 43.5958828, 0.192240227, 226.742993
3143, 58.9851391, 31.499447, 244.808642
3144, 53.3319171, 12.3528845, 238.172251
3145, 41.3570864, -1.72129276, 224.114841
3146, 56.2186872, -0.290798205, 241.561068
3147, 46.9029244, 1.55118164, 230.625172
3148, 33.29986, -14.29986, 216.759552
3149, 29.6723671, -14.6589879, 211.530168
3150, 17.38316, -17.2371125, 197.407219
3151, 16.4483715, -17.3636259, 197.090935
3152, 13, -10.1635177, 196.195955
3153, 13, -13.532645, 193.478224
3154, 13, -16.5750296, 196.506099
3155, 13, -13.9536117, 196.209181
3156, 13, -15.4388309, 194.606209
3157, 13, -16.137252, 193.053612
3158, -7.11904762, -15, 191
3159, 7.11904762, -15, 191
3160, 2.16666667, -15, 191
3161, -2.16666667, -15, 191
3162, -10.6122449, -16.0714286, 191
3163, 10.6122449, -13.9285714, 191
3164, 10.652853, -16.2376093, 191
3165, -10.652853, -13.7623907, 191
3166, -13, -15.9274044, 194.981616
3167, -13, -12.8746639, 194.112608
3168, -13, -9.5, 196.461607
3169, -13, -16.503991, 192.759643
3170, -57.025324, 31.3539026, 247.487338
3171, -57.1844221, -6.14119878, 247.407789
3172, 51.3539026, 37.0253239, 247.487338
3173, -49.9368476, 37.0926046, 247.453698
3174, 2.56935647e-13, 37.2407165, 247.379642
3175, 4.97619048, 37.2627466, 247.368627
3176, -4.97619048, 37.2627466, 247.368627
3177, 9.90509905, 37.2804816, 247.359759
3178, -9.90509905, 37.2804816, 247.359759
3179, 14.8514229, 37.2730936, 247.363453
3180, -14.8471929, 37.272085, 247.363957
3181, 19.7826997, 37.2634098, 247.368295
3182, -19.7826997, 37.2634098, 247.368295
3183, 24.711704, 37.253955, 247.373023
3184, -24.711704, 37.253955, 247.373023
3185, 29.6341413, 37.2432403, 247.37838
3186, -29.6341413, 37.2432403, 247.37838
3187, 57.025324, -7.3539026, 247.487338
3188, 57.1844221, 30.1411988, 247.407789
3189, 31.4433935, -18.0216751, 206.883642
3190, 34.6761698, -17.4915949, 211.335142
3191, -9.50683225, -14.8693805, 188
3192, 9.55133297, -14.828919, 188
3193, -2.16614417, -12.8719658, 188
3194, 5.43547089, -16.7673306, 188
3195, -5.33414813, -16.7942549, 188
3196, 0.0374156356, -16.8997936, 188
3197, 2.31386481, -12.9108612, 188
3198, -10.0449253, -18.5285352, 188
3199, 10.0692292, -18.5173042, 188
3200, -6.68365147, -12.3844417, 188
3201, 6.66612535, -12.3733148, 188
3202, -10.0947842, -11.771049, 188
3203, 10.0947842, -11.771049, 188
3204, 60.9087108, 29.0368609, 240.433418
3205, 43.2719883, -9.67924252, 218.788349
3206, 49.3319057, 16.407619, 226.225521
3207, 51.7750876, -8.75216263, 229.223971
3208, 59.8861282, 9.39835346, 239.17843
3209, 43.7350305, 1.15916494, 219.356628
3210, 60.3741849, 19.2, 239.777409
3211, 60.2418329, 0.353576777, 239.614977
3212, 45.4254001, 12.5696099, 221.431173
3213, 53.9626277, 21.4593158, 231.908679
3214, 44.34022, -5.7731582, 220.099361
3215, 57.6387601, -8.12034474, 236.420296
3216, 44.3474185, 9.46452736, 220.108195
3217, 46.6765635, 9.17500305, 222.966692
3218, 45.0845184, 5.66699962, 221.012818
3219, 47.6947854, 5.48755762, 224.216328
3220, 49.1546222, 8.9308627, 226.007945
3221, 50.3302624, 5.18448275, 227.450777
3222, 51.8181599, 8.69014685, 229.276833
3223, 53.0383764, 4.84803708, 230.774371
3224, 48.8438512, 1.66007069, 225.626545
3225, 54.5841523, 8.48505532, 232.67146
3226, 53.3824486, 12.3890718, 231.196641
3227, 55.8408255, 4.50473065, 234.21374
3228, 54.2491746, 0.780569863, 232.260351
3229, 56.1127729, 12.2019182, 234.547494
3230, 54.5704469, 15.8249494, 232.654639
3231, 57.9719605, 16.4835732, 236.829224
3232, 46.1875665, 2.05918722, 222.366559
3233, 47.6143823, -1.49324164, 224.117651
3234, 48.8034305, -9.05857652, 225.576937
3235, 49.8087253, -2.47199356, 226.810708
3236, 60.3571678, 24.0551429, 239.756524
3237, 58.3386544, 22.2480487, 237.279258
3238, 57.4838169, 0.596997366, 236.230139
3239, 55.486443, -3.35345818, 233.778816
3240, 58.7283484, 4.22679685, 237.757519
3241, 55.0382388, -8.42457526, 233.228748
3242, 51.5083111, 18.9158816, 228.896564
3243, 60.494379, 14.4702692, 239.92492
3244, 57.4375284, 8.34797925, 236.17333
3245, 60.3837662, -4.77372784, 239.789168
3246, 48.1462664, 12.6364916, 224.770418
3247, 50.4061126, 12.4816666, 227.543865
3248, 45.7706017, -9.26428173, 221.854829
3249, 51.5629362, 1.25029124, 228.963604
3250, 52.4687208, -2.92987364, 230.075248
3251, 58.0887848, 26.6757481, 236.9726
3252, 47.3851759, -5.67465867, 223.836352
3253, 56.0280556, 24.5593475, 234.443523
3254, 52.0812854, 15.4415099, 229.599759
3255, 42.76571, 5.30513365, 218.167008
3256, 57.9999334, -3.28463892, 236.863555
3257, 55.9741951, 19.4023097, 234.377421
3258, 58.6023886, 12.3705319, 237.602932
3259, 43.0537653, -2.50298053, 218.52053
3260, 44.9451612, -1.41858288, 220.841789
3261, 50.3671416, -5.93625994, 227.496037
3262, 61.1043224, 4.8, 240.673487
3263, 60.6484937, -8.60753906, 240.11406
3264, 46.9247482, 15.1114049, 223.271282
3265, 53.2973016, -6.17953276, 231.092143
3266, 42.2498679, 9.55162621, 217.533929
3267, 53.5923475, 18.3568604, 231.454245
3268, -32.0071, 16.0074571, 221.084667
3269, 31.7683906, 15.7524433, 220.819845
3270, -2.62145013, 22.3303241, 227.650721
3271, 1.01379917, 23.3620019, 228.722079
3272, -2.20760785, 24.9841009, 230.406566
3273, 1.50462282, 26.1387275, 231.605602
3274, -16.1419949, 25.9597597, 231.41975
3275, 31.5156041, 36.93058, 242.812525
3276, -31.4820984, 36.8233916, 242.701214
3277, 16.4533658, 26.4180932, 231.895712
3278, 21.8376947, 37.1258988, 243.015356
3279, -7.26509963, 36.8233916, 242.701214
3280, 7.12856458, 36.5439476, 242.411022
3281, 38.3073909, 25.7038428, 231.153991
3282, 23.9129186, 25.8391807, 231.294534
3283, -38.0736147, 25.5163628, 230.9593
3284, -19.5239099, 27.5273028, 233.047584
3285, -35.6732466, 20.5958687, 225.849556
3286, 35.3733552, 20.2302058, 225.469829
3287, -1.83310783, 27.7301513, 233.258234
3288, -15.6701168, 28.8868013, 234.459371
3289, -19.1992744, 30.5505656, 236.187126
3290, -23.235694, 29.3594759, 234.950225
3291, -42.9407409, 31.17962, 236.840375
3292, 42.9407409, 31.17962, 236.840375
3293, 4.78704535, 24.3464878, 229.74443
3294, 5.27897639, 27.1951404, 232.702646
3295, 27.3937979, 24.1572332, 229.547896
3296, 27.7473927, 27.1297426, 232.634733
3297, 24.2758976, 28.9440964, 234.518869
3298, -5.91403329, 23.9759813, 229.359673
3299, 6.58128326, 17.7684896, 222.913431
3300, -6.91955354, 18.9702606, 224.161424
3301, -22.8083073, 32.3295298, 238.034512
3302, -27.1274196, 31.3376261, 237.004458
3303, -27.5721133, 22.2485203, 227.565771
3304, -15.2100042, 31.7409164, 237.423259
3305, -11.6296823, 30.1341858, 235.754731
3306, 28.4079032, 30.5154537, 236.150663
3307, -33.5811773, 18.8693947, 224.056679
3308, 34.1831639, 18.8071584, 223.992049
3309, -27.1892508, 28.0336823, 233.573439
3310, -30.9381014, 30.00789, 235.623578
3311, 32.3336042, 20.5261921, 225.777199
3312, 12.4278863, 22.2485202, 227.565771
3313, -12.3532501, 22.0683997, 227.378723
3314, -31.153585, 26.7253599, 232.214797
3315, 33.9160746, 22.5754504, 227.905275
3316, -41.4896607, 36.947104, 242.829685
3317, 41.1688979, 36.8233916, 242.701214
3318, 31.7519661, 28.3807452, 233.933851
3319, 32.4266219, 31.4455158, 237.116497
3320, 24.527493, 31.6752358, 237.355053
3321, 20.589141, 30.6042206, 236.242845
3322, -17.5996142, 37.0785941, 242.966232
3323, -13.539014, 17.1066281, 222.226114
3324, 8.69517384, 25.8963012, 231.353851
3325, 9.17572208, 28.5581557, 234.118085
3326, 5.70864874, 30.2525406, 235.877638
3327, 9.67556179, 31.3880065, 237.056776
3328, 13.2116292, 29.5699065, 235.168749
3329, 13.7148102, 32.4485429, 238.158102
3330, 6.60844842, 20.4718361, 225.720753
3331, -32.6594768, 21.2760715, 226.55592
3332, -30.3758824, 19.5736419, 224.788013
3333, 30.1760332, 18.0644885, 223.220815
3334, -11.4396361, 34.0043378, 239.773735
3335, -7.54413757, 31.2796941, 236.944298
3336, -8.12650366, 28.4882785, 234.04552
3337, 35.962415, 29.4218591, 235.015007
3338, 36.5223949, 32.5576404, 238.271396
3339, -26.4709892, 34.0699222, 239.841842
3340, 12.8579192, 17.5866738, 222.724623
3341, -35.6587429, 23.6574763, 229.028918
3342, -22.3024047, 35.1825173, 240.99723
3343, -34.688989, 28.1229414, 233.666131
3344, -34.5990407, 31.581113, 237.25731
3345, 6.11704516, 33.2088878, 238.947691
3346, 2.04949232, 31.9351359, 237.624949
3347, 2.47362685, 35.0451479, 240.854577
3348, -1.66763079, 33.747961, 239.507498
3349, -27.8835564, 16.8007321, 221.908453
3350, 28.3094108, 20.0505383, 225.283251
3351, -23.6342992, 26.0235879, 231.486034
3352, -31.4584809, 23.3883142, 228.749403
3353, -12.0700721, 27.1924438, 232.699845
3354, -12.0599353, 36.8428403, 242.721411
3355, 26.8524853, 37.1865448, 243.078335
3356, 29.0606965, 33.9886231, 239.757416
3357, -36.2830983, 36.8403717, 242.718848
3358, -38.7053579, 33.9744257, 239.742673
3359, 36.6487318, 37.6460435, 243.555507
3360, -38.8323876, 30.3177689, 235.945375
3361, 12.1084994, 36.8233916, 242.701214
3362, 17.100918, 37.0890725, 242.977114
3363, 19.8562679, 34.222346, 240.000128
3364, -27.0681797, 36.9772623, 242.861003
3365, -46.9841829, 37.7083897, 243.620251
3366, 47.0047681, 37.7369063, 243.649864
3367, 40.6238573, 28.4215001, 233.976173
3368, 19.9261973, 27.5529548, 233.074222
3369, -30.7255153, 33.6487493, 239.40447
3370, -45.2847106, 33.9063965, 239.672027
3371, 45.2569557, 33.8728921, 239.637234
3372, 1.99422149, 28.9257712, 234.499839
3373, -2.45898458, 36.7226403, 242.596588
3374, -27.5105462, 24.9447838, 230.365737
3375, -18.6341828, 33.4664545, 239.215164
3376, -1.95192834, 30.7274995, 236.370865
3377, 5.93681073, 15.3987655, 220.452564
3378, -5.44471962, 26.5228795, 232.004529
3379, 31.088286, 25.3921279, 230.830287
3380, 12.4020981, 26.6340448, 232.11997
3381, -34.1044324, 25.5045708, 230.947054
3382, 40.8593347, 33.7791415, 239.539878
3383, -8.98583637, 25.7521023, 231.204106
3384, 9.99422582, 34.2710839, 240.050741
3385, 33.553212, 34.2459464, 240.024637
3386, 37.1205093, 22.2140354, 227.52996
3387, 29.8740086, 22.2500681, 227.567378
3388, 7.93315362, 22.8983207, 228.240564
3389, 27.079204, 18.266571, 223.43067
3390, 17.0761712, 29.1129113, 234.694177
3391, 34.7226796, 24.8832587, 230.301846
3392, -15.0308124, 34.4352328, 240.221203
3393, -33.0443619, 17.1141806, 222.233957
3394, -7.60298545, 34.1414601, 239.916132
3395, 10.1523477, 19.5105683, 224.722513
3396, -10.2729756, 19.9582487, 225.187412
3397, -7.39774167, 21.4215358, 226.706979
3398, -9.37442247, 16.9610204, 222.074906
3399, -12.9499243, 24.537461, 229.942748
3400, 24.8774936, 34.8536314, 240.655694
3401, 3.62691026, 21.6576841, 226.95221
3402, -41.3540708, 28.1445337, 233.688554
3403, -37.4531923, 21.9605459, 227.266721
3404, 17.4425568, 31.9745608, 237.66589
3405, -34.8022832, 34.3127135, 240.093972
3406, 9.628357, 16.4055579, 221.498079
3407, -4.76101976, 29.473233, 235.068357
3408, 39.2899748, 30.8078767, 236.454333
3409, 16.9180137, 15.2853427, 220.334779
3410, 13.7916077, 24.3940086, 229.793778
3411, 2.42169988, 37.6754528, 243.586047
3412, 29.105659, 16.6399656, 221.741503
3413, 26.0777081, 15.8305944, 220.901002
3414, 33.3336552, 17.0573581, 222.174949
3415, -9.49264005, 23.1107879, 228.461203
3416, -4.46711189, 32.3580719, 238.064152
3417, 26.3605562, 22.1200518, 227.432361
3418, -27.5204591, 19.390569, 224.597899
3419, 14.5646734, 35.0189127, 240.827332
3420, -51.4927537, 38.8772297, 244.834046
3421, 51.5029531, 38.8838427, 244.840914
3422, -25.6655202, 15.5164599, 220.574785
3423, -21.9285502, 37.7884259, 243.703365
3424, -16.1700431, 15.4383969, 220.49372
3425, 34.7900828, 27.2978039, 232.809258
3426, -29.9344573, 21.3954626, 226.679903
3427, -42.0091786, 33.4130199, 239.159675
3428, 37.7358723, 34.7083438, 240.504819
3429, -4.46141428, 34.5000515, 240.288515
3430, -30.4589247, 17.6657448, 222.806735
3431, 10.9656719, 24.2869485, 229.6826
3432, -55.7681918, 36.1045708, 238.816622
3433, -45.1556036, 22.2362743, 224.447407
3434, -49.7104176, 27.205863, 230.037817
3435, -54.0123826, 32.6551959, 235.761405
3436, -47.5030472, 24.7679298, 227.311226
3437, -52.1346228, 29.7825363, 232.973115
3438, -56.6923049, 39.1791478, 241.163679
3439, -58.8650628, 36.7458309, 241.010742
3440, -22.5637261, -14.5150013, 192.535651
3441, -31.1696127, -3.05555984, 203.488598
3442, -28.2905943, -12.957714, 199.824393
3443, -36.2902702, -11.1688984, 210.005798
3444, -38.7088586, -3.29471536, 213.084002
3445, -28.7642512, -5.57025593, 200.427229
3446, -31.2346184, -7.50701182, 203.571332
3447, -33.671922, -5.10044318, 206.673355
3448, -36.0527272, 2.0292954, 209.703471
3449, -33.9976224, -11.6070722, 207.087883
3450, -25.5301697, -13.6967319, 196.311125
3451, -26.3588897, -8.08495203, 197.36586
3452, -33.3679151, -0.823835695, 206.286437
3453, -35.9626603, -2.66760482, 209.58884
3454, -31.4836076, -12.0203259, 203.888228
3455, -38.70031, 1.01136427, 213.073122
3456, -38.4178421, 4.59437127, 212.713617
3457, -23.8884136, -10.3593969, 194.221617
3458, -38.70031, -7.60079499, 213.073122
3459, -35.5655184, -7.46176986, 209.083387
3460, -29.1236466, -9.49409559, 200.884641
3461, -20.9015408, -12.4708512, 190.420143
3462, -38.9342213, -11.2659001, 213.370827
3463, -33.1916896, -8.58027037, 206.06215
3464, -22.2290387, -11.3154573, 192.109686
3465, -26.6455743, -11.2267021, 197.730731
3466, -30.5468984, 6.34570392, 212.780063
3467, -35.8882462, 10.6437358, 211.975455
3468, -21.5780026, -6.22339825, 192.576198
3469, -19.4143528, -8.19085428, 190.005732
3470, -32.6249475, 7.66216856, 208.089761
3471, -30.3844209, 5.01739301, 205.050018
3472, -23.780838, -3.51118633, 195.63445
3473, -49.1512986, 40.041098, 239.927294
3474, 49.1512986, 40.041098, 239.927294
3475, -38.5887907, 26.2593907, 225.615521
3476, 38.3313218, 25.8656162, 225.206601
3477, 19.3427527, 39.503158, 239.368664
3478, -19.5850745, 39.615773, 239.48561
3479, -0.0900934912, 22.4831875, 221.694079
3480, -23.8030409, 25.6178929, 224.94935
3481, 23.5454586, 25.8503757, 225.190775
3482, 16.1039894, 25.7402579, 225.076422
3483, -9.19261891e-14, 40.074797, 239.962289
3484, -16.3263615, 25.8340763, 225.173848
3485, 34.2367415, 40.0188002, 239.904139
3486, -34.2132196, 40.2848424, 240.180413
3487, 42.5724943, 31.4886524, 231.045908
3488, -42.5724943, 31.4886524, 231.045908
3489, 9.82335843, 40.3274156, 240.224624
3490, -9.82857164, 40.2968542, 240.192887
3491, 26.6632878, 21.9292522, 221.118839
3492, -6.43068077, 19.6785099, 218.78153
3493, 6.45091007, 19.7820066, 218.889007
3494, -29.0473363, 19.7153665, 218.819804
3495, 35.7938438, 20.6462471, 219.786487
3496, -35.8168658, 20.753163, 219.897515
3497, -12.3149439, 24.9972928, 224.304881
3498, -12.5257289, 27.1919298, 226.583927
3499, -16.1930638, 28.9309036, 228.389785
3500, -12.2750227, 30.2873927, 229.798446
3501, -8.57750203, 28.5442861, 227.988297
3502, -8.31293253, 31.6619289, 231.225849
3503, -4.56664464, 30.1651161, 229.671467
3504, -15.9695369, 31.9313592, 231.505642
3505, -4.29159507, 33.2074166, 232.830779
3506, -0.481956323, 31.3213404, 230.872161
3507, 12.6361025, 24.0491788, 223.320301
3508, 12.3095026, 27.1204317, 226.509679
3509, 15.8099711, 28.8092756, 228.263479
3510, 11.8357776, 30.1132448, 229.6176
3511, 15.4391048, 31.8211045, 231.391147
3512, 8.23250729, 28.2652305, 227.698509
3513, 11.4073619, 33.0872136, 232.705953
3514, -19.8869623, 30.465385, 229.983284
3515, 19.4239335, 30.4517341, 229.969108
3516, -19.6990276, 33.5434334, 233.179719
3517, -23.6075179, 32.3078238, 231.896586
3518, 19.0790408, 33.5227218, 233.158211
3519, 23.1030683, 32.1953487, 231.779785
3520, -27.3956701, 24.2437739, 223.522381
3521, -27.672836, 26.9108366, 226.292023
3522, -23.4214836, 34.9992063, 234.691483
3523, -27.4366104, 33.7803909, 233.425791
3524, -15.7300137, 34.9847378, 234.676458
3525, -30.9807001, 25.3842876, 224.70676
3526, -31.2862043, 28.0183966, 227.442181
3527, 22.7392184, 35.1235407, 234.8206
3528, 26.6619745, 33.8873504, 233.536864
3529, 27.1314361, 30.8636807, 230.396899
3530, 30.6716323, 32.3136422, 231.902628
3531, 31.0970998, 29.6164855, 229.101735
3532, 34.586661, 31.3795335, 230.932592
3533, 34.7050496, 35.1831472, 234.882499
3534, -27.5854635, 37.4420688, 237.228302
3535, -31.2426267, 35.4522038, 235.161904
3536, 26.9015654, 37.1514121, 236.926466
3537, -0.778932886, 28.183774, 227.613919
3538, -0.223379086, 34.2322155, 233.894993
3539, 3.60749553, 32.743923, 232.349458
3540, 3.86776882, 35.9207959, 235.648519
3541, -4.04036187, 35.8204776, 235.544342
3542, -30.8356397, 32.4035986, 231.996045
3543, -35.1401636, 33.9992962, 233.653115
3544, -35.3141898, 30.962219, 230.499227
3545, 35.054474, 28.6512232, 228.099347
3546, 31.0031276, 26.2505416, 225.606332
3547, -28.7963287, 29.5772206, 229.06096
3548, 40.5188606, 28.6980206, 228.147944
3549, -40.5188606, 28.6980206, 228.147944
3550, 27.7529788, 19.599311, 218.699284
3551, 30.3191391, 21.585272, 220.761629
3552, 28.9926972, 24.021775, 223.291843
3553, 32.5500662, 23.6018576, 222.855775
3554, -4.79209217, 22.2548401, 221.456949
3555, 4.39501847, 22.5276285, 221.74023
3556, 44.3082393, 39.9235464, 239.805221
3557, 39.4197805, 39.8970419, 239.777697
3558, 41.8952112, 37.1414687, 236.916141
3559, -43.826087, 40.074797, 239.962289
3560, -30.6360381, 22.5768235, 221.791317
3561, -33.8780433, 23.2299915, 222.469607
3562, 2.14630342, 25.2923153, 224.61125
3563, -8.2358466, 21.8128969, 220.998008
3564, -7.65125178, 24.2017674, 223.478758
3565, 10.9273417, 19.6792289, 218.782276
3566, -3.15340999, 25.0448479, 224.354265
3567, -34.4834513, 26.2651468, 225.621499
3568, 37.7518193, 37.7948222, 237.594623
3569, 39.8252587, 34.5242295, 234.198238
3570, -46.4522661, 37.2884017, 237.068725
3571, -41.7927281, 37.1640734, 236.939615
3572, 27.9448568, 27.9143936, 227.334178
3573, 36.7234529, 23.2514924, 222.491934
3574, -39.4789254, 40.2727642, 240.167871
3575, -36.2401009, 36.5395386, 236.291059
3576, 33.7908141, 19.2516524, 218.338254
3577, 18.6894131, 36.6386888, 236.394023
3578, 6.55031888, 25.3959745, 224.718897
3579, 23.9754553, 28.2472223, 227.679808
3580, 44.2028099, 34.340955, 234.007915
3581, 46.8089795, 37.1966364, 236.97343
3582, -13.3991238, 18.737746, 217.804582
3583, -13.2181044, 20.7892654, 219.935006
3584, -10.8819742, 19.5403429, 218.638048
3585, -44.2751392, 34.4737989, 234.145868
3586, -39.9085954, 33.9459017, 233.597667
3587, -33.4407871, 18.9394618, 218.014057
3588, 24.2838268, 40.1004271, 239.988905
3589, 29.3139338, 40.1134598, 240.002439
3590, 31.2554878, 37.0677961, 236.839634
3591, 14.6726949, 40.1004271, 239.988905
3592, 12.2366085, 37.2447187, 237.023362
3593, -14.6021614, 40.1758978, 240.067279
3594, -12.2104946, 36.8191188, 236.581393
3595, -37.1983535, 28.6347298, 228.082219
3596, -29.2173913, 40.074797, 239.962289
3597, -24.2840833, 40.1003244, 239.988798
3598, 8.97883247, 23.0109655, 222.242156
3599, 3.66938553, 28.0718705, 227.497712
3600, 4.69007103, 39.6575686, 239.529014
3601, -4.98401023, 40.5497282, 240.455487
3602, -20.378036, 27.2659223, 226.660765
3603, 19.9653462, 27.0937348, 226.481955
3604, -24.3549366, 29.2865644, 228.759125
3605, 35.3340165, 25.8717771, 225.212999
3606, -8.09550891, 34.6486072, 234.3274
3607, -12.1013043, 33.6934263, 233.335481
3608, 7.87107395, 31.0942619, 230.636349
3609, 15.0780066, 34.8266088, 234.512248
3610, 8.42323356, 35.4921336, 235.20337
3611, -19.5287766, 36.6024121, 236.356351
3612, 38.6091275, 31.1330848, 230.676665
3613, -27.1855141, 21.8918256, 221.079973
3614, -39.001569, 30.9941325, 230.532368
3615, -7.7046658, 37.5498486, 237.340227
3616, -37.7793826, 22.2753099, 221.478206
3617, 33.2696103, 21.6168293, 220.7944
3618, 0.317609462, 37.2557684, 237.034836
3619, 30.7266054, 19.4190333, 218.512073
3620, -5.17329402, 27.2736521, 226.668793
3621, -32.9539698, 21.2187762, 220.381037
3622, 22.4802945, 37.784368, 237.583767
3623, -16.0379139, 37.5917128, 237.383702
3624, -31.6521739, 38.0514423, 237.861113
3625, 13.3150613, 21.7540824, 220.936932
3626, 37.7893374, 27.8451814, 227.262304
3627, 7.48508791, 37.8564631, 237.658635
3628, 26.9211124, 25.6484333, 224.981065
3629, -22.8289348, 37.7254944, 237.522629
3630, 37.572496, 21.7233071, 220.904973
3631, -32.0674686, 29.74376, 229.233905
3632, 4.6120835, 30.4013188, 229.916754
3633, -36.8124473, 24.0791648, 223.35144
3634, 9.87825975, 25.3589412, 224.680439
3635, 29.9397261, 34.884346, 234.572205
3636, 15.5824008, 37.7562083, 237.554524
3637, 37.0803428, 33.0978251, 232.716972
3638, -9.20440364, 26.4380149, 225.801015
3639, 6.80442925, 33.4527616, 233.08556
3640, 26.0661785, 23.8648452, 223.128878
3641, -34.3088579, 28.695549, 228.145378
3642, -11.7545157, 22.7235863, 221.943724
3643, 25.9535029, 19.0502768, 218.129134
3644, -26.6931657, 31.6477348, 231.211109
3645, -2.9383516, 38.2413981, 238.058375
3646, 34.3916789, 37.8343445, 237.635665
3647, -15.2749299, -6.42970334, 190.768012
3648, 13.9540436, -7.91613552, 189.167239
3649, -16.7054026, 14.4977246, 213.305242
3650, 18.3805855, -1.16918769, 196.433182
3651, -18.7182396, -0.555891084, 197.093656
3652, 2.16666667, -6.44641893, 190.75001
3653, 14.6774405, 14.6446625, 213.463483
3654, 2.8554199, 10.0640075, 208.53047
3655, -1.0241328, 8.78516543, 207.153255
3656, -5.97766747, -6.96989866, 190.186263
3657, -22.5288054, 4.58642183, 202.631531
3658, -4.60092228, 10.4335373, 208.928425
3659, 2.5124235, 7.16307972, 205.406394
3660, -4.88738839, 7.68373738, 205.967102
3661, 22.8176276, 5.05379775, 203.134859
3662, 6.36052666, 8.41226694, 206.751672
3663, 6.02862851, 5.51677375, 203.633449
3664, 2.19929594, 4.29166328, 202.314099
3665, 5.67023142, 2.6519177, 200.548219
3666, -8.35429479, 9.1381659, 207.533409
3667, -8.60220857, 6.45383277, 204.642589
3668, 9.46431924, 3.87495835, 201.86534
3669, -11.8816995, 7.88424051, 206.183028
3670, -19.810423, 13.0252097, 211.719457
3671, 18.205664, 12.8840515, 211.56744
3672, -12.1557941, 5.26728108, 203.364764
3673, -8.95379821, 3.79404888, 201.778206
3674, 1.83980031, 1.41854751, 199.219974
3675, 9.16850282, 1.15521336, 198.936384
3676, 23.4069226, 14.3853461, 213.184219
3677, -12.3893062, 2.65677276, 200.553448
3678, -9.22333772, 1.18170649, 198.964915
3679, -10.529391, 14.5556045, 213.367574
3680, 12.7303817, -7.44049306, 189.679469
3681, 13.3651132, -6.63793283, 190.543765
3682, -15.444313, 6.57616067, 204.774327
3683, -12.61063, 0.106849915, 197.807377
3684, -9.53540223, -1.23033085, 196.367336
3685, -12.789948, -2.45701858, 195.046288
3686, -6.03113329, -0.246686893, 197.426645
3687, -16.1636863, 11.6419704, 210.229814
3688, -19.6752792, 10.4790212, 208.977407
3689, -23.140181, 11.6628565, 210.252307
3690, 12.9187154, 2.37796209, 200.25319
3691, 13.2444093, 5.13971988, 203.227391
3692, 12.550064, -0.53351963, 197.117748
3693, 8.94369855, -1.6956402, 195.866234
3694, 10.8737428, -6.27956558, 190.929699
3695, 12.1869128, -4.85422096, 192.464685
3696, -1.67328945, 3.06904665, 200.997435
3697, 6.54791683, 13.9749267, 212.742229
3698, 9.06738895, -4.56141673, 192.780013
3699, -10.6523815, -6.47892719, 190.715001
3700, 16.643189, 3.46601476, 201.424939
3701, 17.0050981, 6.45756131, 204.646604
3702, 13.5481121, 8.01592759, 206.324845
3703, -16.6685456, -3.3607355, 194.073054
3704, 17.2911243, -3.19866029, 194.247597
3705, 26.9170156, 10.6634866, 209.176062
3706, -14.0409483, -7.85573467, 189.232286
3707, -23.0668583, 9.30640061, 207.714585
3708, -9.7040095, -3.49918167, 193.923958
3709, 27.4248846, 13.1772964, 211.883242
3710, -12.6613964, -7.86580355, 189.221442
3711, -13.3451404, -6.83256227, 190.334164
3712, -13.8798963, -5.56175218, 191.702728
3713, -21.3583163, 2.92698091, 200.844441
3714, -15.3988872, 4.11332861, 202.122046
3715, 17.2476413, 8.49818776, 206.844202
3716, 13.8672683, 10.7860554, 209.30806
3717, -11.7125853, 10.5881528, 209.094934
3718, -28.609473, 13.0059702, 211.698737
3719, -7.99119571, 12.306066, 210.944994
3720, 20.7914534, 1.99178297, 199.837305
3721, -19.8968063, 7.44840646, 205.713668
3722, 15.8507334, -7.64044244, 189.464139
3723, -5.35025399, 5.0382354, 203.1181
3724, 5.69499856, -0.232331648, 197.442104
3725, 1.87105028, -1.45731558, 196.122891
3726, -15.5921185, 1.4517434, 199.255724
3727, 5.51324826, -2.82054768, 194.654795
3728, 24.8741193, 7.78431451, 206.075416
3729, 22.1553929, 9.6473185, 208.081728
3730, -1.26482625, 6.18082522, 204.348581
3731, -15.5542551, -1.11071918, 196.496149
3732, -2.27655597, -6.4895899, 190.703519
3733, -4.38186003, -4.33973119, 193.018751
3734, -0.336588673, -4.01662672, 193.36671
3735, 9.77458872, 6.77451733, 204.987942
3736, -1.85576862, 0.535001545, 198.268463
3737, -6.8947503, 15.0669541, 213.918258
3738, -19.0906177, 4.8898485, 202.958298
3739, -23.1035977, 14.0621294, 212.836139
3740, 16.0881909, -5.22006216, 192.070702
3741, 10.6105465, 14.587009, 213.401394
3742, 9.57803415, 12.1498765, 210.77679
3743, -27.0577894, 10.6429581, 209.153955
3744, -15.1070966, 9.3138586, 207.722617
3745, 20.7400731, 7.55108239, 205.824243
3746, 10.2016321, 9.51218915, 207.936204
3747, -15.7845963, -7.65621238, 189.447156
3748, -5.88925042, 2.30868541, 200.178584
3749, 5.96948795, -6.65483517, 190.525562
3750, 11.8443729, -2.69151419, 194.793754
3751, -13.473653, 13.1645843, 211.869552
3752, 15.7899058, 0.951878088, 198.717407
3753, -15.8927834, -5.01628735, 192.290152
3754, -14.0752512, -4.14750691, 193.225762
3755, -6.91397135, -2.69839439, 194.786345
3756, -18.6536421, 1.4300007, 199.232308
3757, -11.8658504, -4.61795861, 192.719121
3758, -3.4367477, -2.14704594, 195.380104
3759, 5.85918384, 11.3933215, 209.962039
3760, -24.9554794, 6.89470817, 205.117378
3761, 14.2480187, -3.60915776, 193.805522
3762, 15.0867058, -1.69805024, 195.863638
3763, 12.9084123, 12.9235435, 211.60997
3764, 24.2091239, 11.9744669, 210.587887
3765, 19.4643857, 4.7317767, 202.788067
3766, -12.1745412, -5.83935986, 191.403766
3767, -21.0575428, 0.969698405, 198.736598
3768, -25.8161876, 12.9087553, 211.594044
3769, 2.99653533, -4.42362259, 192.928406
3770, -8.57224079, -5.35793534, 191.922223
3771, 21.3390148, 12.7208343, 211.391668
3772, 19.1926163, 10.5340428, 209.036661
3773, -10.4767841, -8.11246822, 188.955803
3774, -26.3764073, 14.9803467, 213.824989
3775, -13.8694389, 15.1520566, 214.009907
3776, 30.7438357, 14.9491188, 213.791359
3777, 6.24390788, -4.7273164, 192.601352
3778, -17.7781522, 3.19106085, 201.128835
3779, -29.4234879, 15.1914005, 214.052277
3780, -8.82232176, -7.07208742, 190.076214
3781, -10.8839469, 12.6719774, 211.339053
3782, 17.5024585, 14.7313641, 213.556854
3783, 6.89056007, 15.6658696, 214.563244
3784, -18.9052395, -2.36834918, 195.141778
3785, -19, -14.5892452, 196.976671
3786, -17.7925377, -16.8170816, 199.280429
3787, -16.0106414, -13.994186, 219.040698
3788, -16.0070317, -14.6602067, 214.378553
3789, -16.008141, -15.3248277, 209.726206
3790, -15.8355612, -15.9855606, 205.101076
3791, -15.9977888, -13.426696, 223.013128
3792, -15.7609332, -16.5749882, 200.975083
3793, -19, -14.9634311, 199.362903
3794, -19, -10.5558778, 205.384143
3795, -19, -10.594515, 214.333303
3796, -19, -10.0727386, 218.135074
3797, -19, -11.4220779, 209.654447
3798, -19, -9.97394348, 222.030999
3799, -19, -10.2883346, 201.626166
3800, -18.6276785, -20.5014185, 189.246454
3801, 60.0597329, 36.4188158, 244.146114
3802, 56.4204001, 40.0465347, 244.151393
3803, 55.9086851, 35.654488, 244.066785
3804, 42.8146259, 21.7346556, 228.871471
3805, 49.2985279, 27.1339612, 235.555775
3806, 45.6261007, 23.5384326, 231.46755
3807, 52.9672797, 33.1895711, 241.025729
3808, 51.0580706, 29.5635914, 237.912185
3809, 46.5878598, 25.6544873, 233.19882
3810, 44.0975923, 14.1313922, 221.80796
3811, 38.3701346, 20.2133632, 222.808532
3812, 35.5677983, 16.4077531, 218.065307
3813, 36.1975039, 13.6978613, 217.650799
3814, 38.5059612, 11.8176227, 217.375621
3815, 40.7622565, 20.4755469, 224.399645
3816, 36.542806, 18.8576273, 220.512666
3817, 40.9654317, 11.6481397, 218.544818
3818, 35.6056457, 15.4841784, 216.188446
3819, 43.1389657, 19.3026375, 225.564188
3820, 42.0614271, 12.0067551, 221.124542
3821, 43.1737363, 12.7653132, 223.80582
3822, 35.5983659, 16.8381836, 220.185191
3823, 37.1441893, 12.5616855, 219.396459
3824, 44.245262, 17.6436738, 225.2784
3825, 36.7295596, 11.6841193, 219.795194
3826, 34.5035266, 14.0087597, 219.850661
3827, 20.5734199, -11.9099058, 198.093444
3828, 28.8580693, -9.5692387, 208.637543
3829, 24.5587218, -8.46758269, 203.165646
3830, 32.0410766, -0.471358325, 212.688643
3831, 34.6457837, -5.4, 216.003725
3832, 22.7434625, -11.0991004, 200.855316
3833, 27.0491606, -5.78352243, 206.335295
3834, 29.2831438, -3.23384232, 209.178547
3835, 31.9871392, -8.94196915, 212.619995
3836, 34.5924213, 2.59731701, 215.935809
3837, 34.9326091, -9.39431645, 216.368775
3838, 26.3836291, -10.1076432, 205.488255
3839, 32.0205528, -4.36026967, 212.662522
3840, 34.6079307, -1.524828, 215.955548
3841, 24.8105828, -11.5500438, 203.486196
3842, 29.9621516, -6.41280895, 210.042738
3843, 21.0080743, -9.45270561, 198.64664
3844, 19, -11.9646031, 204.548099
3845, 19, -10.8165706, 209.831671
3846, 19, -9.87478522, 214.622008
3847, 19, -9.63731571, 218.447025
3848, 19, -14.40625, 200.171818
3849, 19, -9.90082375, 222.431734
3850, 19, -10.2768526, 201.060869
3851, 17.478941, -16.7028836, 200.079815
3852, 16.0106414, -13.994186, 219.040698
3853, 16.0070317, -14.6602067, 214.378553
3854, 16.008141, -15.3248277, 209.726206
3855, 16.0068364, -16.093055, 204.348615
3856, 15.9977888, -13.426696, 223.013128
3857, 14.8280599, -16.6418721, 200.506896
3858, 17.3137254, -7.19203648, 197.039818
3859, 13, -11.6956754, 205.144894
3860, 13, -10.8406789, 209.470574
3861, 13, -9.87478522, 214.622008
3862, 13, -9.6073991, 218.399668
3863, 13, -9.89507752, 222.43917
3864, 13, -10.08222, 201.225331
3865, 26.6606992, 11.3413404, 216.136828
3866, -26.6679246, 11.3501559, 216.146322
3867, 18.1619642, -0.229396621, 203.676034
3868, -18.0771184, -0.321185597, 203.577185
3869, 1.67809661e-10, 9.83262989, 214.512063
3870, -2.16666667, -9.44641893, 193.75001
3871, 5.5010545, 11.849698, 216.68429
3872, -5.63790768, 11.8387375, 216.672487
3873, 16.4334484, 11.6081811, 216.424195
3874, -16.0780667, 11.1508882, 215.931726
3875, -13.9852941, -6.25052083, 197.191747
3876, -11.9639332, -6.14472214, 197.305684
3877, 13.9852941, -6.25052083, 197.191747
3878, 11.9565973, -6.22769236, 197.216331
3879, -13.0275261, -4.88610373, 198.661119
3880, -10.7012744, -4.76431783, 198.792273
3881, 13.0037013, -4.89132261, 198.655499
3882, 10.5649329, -4.86468333, 198.684187
3883, -11.8912041, -3.40316974, 200.258125
3884, -9.36182504, -3.34015303, 200.325989
3885, -10.6673081, -1.81560636, 201.967809
3886, -7.96394202, -1.85090821, 201.929791
3887, -9.33214518, -0.261805187, 203.641133
3888, -6.52026411, -0.20179847, 203.705755
3889, -7.97956908, 1.5465537, 205.588596
3890, -5.0408958, 1.53618796, 205.577433
3891, -3.59135044, -0.272950406, 203.62913
3892, -1.99417032, 1.54604414, 205.588048
3893, -0.442645709, -0.372353621, 203.522081
3894, 1.15030212, 1.53454694, 205.575666
3895, 11.8199002, -3.36971048, 200.294158
3896, -6.53868689, 3.28935949, 207.465464
3897, -9.6044664, 3.26477402, 207.438987
3898, 9.21703425, -3.31748492, 200.350401
3899, 10.5623155, -1.6901236, 202.102944
3900, 7.9379411, -4.91145751, 198.633815
3901, -6.66029354, -3.47600998, 200.179682
3902, -8.10199832, 5.19016135, 209.512481
3903, -10.8823213, -7.47089841, 195.877494
3904, -11.3207528, 5.06452693, 209.377183
3905, -22.5360258, 5.73261253, 210.09666
3906, -0.401286972, 3.42502618, 207.611567
3907, 2.86128258, 3.38449909, 207.567922
3908, 7.7849594, -1.74501891, 202.043826
3909, 9.20314877, -0.0326357831, 203.887931
3910, 10.5838694, -8.01952461, 195.286666
3911, -9.74077641, 7.09691588, 211.565909
3912, 21.7118432, 4.52821275, 208.799614
3913, -12.2045983, -0.227407392, 203.678177
3914, 12.1423643, -0.0402193449, 203.879764
3915, 10.6845961, 1.70665042, 205.761008
3916, -6.32496925, 7.09436161, 211.563159
3917, -12.9668652, 3.25155301, 207.424749
3918, -14.721265, 5.01410132, 209.322878
3919, -2.14198568, -2.15577792, 201.60147
3920, 1.39448291, -2.15585467, 201.601387
3921, -0.724344448, -4.08057746, 199.528609
3922, 1.24981079, 5.36301549, 209.698632
3923, 4.6751181, 5.33799251, 209.671684
3924, -17.2623436, -1.62360015, 202.174584
3925, 13.7811574, 1.68727212, 205.740139
3926, 12.3369928, 3.78598501, 208.000292
3927, 15.5931817, 3.71476464, 207.923593
3928, 13.9576563, 5.6981419, 210.059537
3929, 17.0524984, -1.99056175, 201.779395
3930, 6.23704678, -0.0693369534, 203.848406
3931, 2.39312415, -4.29137778, 199.301593
3932, -6.5, -9.44641893, 193.75001
3933, -4.30796622, -7.46138302, 195.887741
3934, 10.3738591, 5.68936735, 210.050088
3935, 11.9673686, 7.65661722, 212.168665
3936, 8.38992789, 7.86618788, 212.394356
3937, 10.2004539, 9.70679198, 214.376545
3938, -9.88084423, 11.7977246, 216.628319
3939, 6.21848098, -10.0037758, 193.14978
3940, 0.70010498, -5.94294153, 197.522986
3941, 3.89122268, -6.21599733, 197.228926
3942, 2.39565025, -9.53637711, 193.653132
3943, 6.22323766, 3.55138901, 207.74765
3944, -2.01368211, 5.34603819, 209.680349
3945, 2.99370325, 7.72471748, 212.242003
3946, 22.0620961, 11.5396642, 216.350408
3947, 18.6860037, 8.40882598, 212.978736
3948, -21.7899004, 10.9002637, 215.661822
3949, -18.6863027, 8.41198128, 212.982134
3950, -14.3620958, 8.67271432, 213.262923
3951, -16.8800134, 3.48535967, 207.676541
3952, 4.83089341, -1.79991819, 201.984703
3953, 20.5917248, 2.72840684, 206.861361
3954, -21.0672021, 3.78303885, 207.997119
3955, -7.5241287, -7.37928057, 195.976159
3956, -14.4403123, -3.56269748, 200.086326
3957, -15.4195458, -0.0890121747, 203.827218
3958, -24.741932, 8.66196971, 213.251352
3959, 14.4229197, -3.40606991, 200.255002
3960, -18.7141982, 5.70873322, 210.070943
3961, 17.6205396, 5.66118405, 210.019737
3962, 24.5820064, 8.60309483, 213.187948
3963, 9.48056175, -6.38777527, 197.043934
3964, 2.66609652, -0.371780185, 203.522698
3965, -0.445673176, 7.33859037, 211.826174
3966, -3.30897972, 8.84095261, 213.444103
3967, -6.94844717, 9.31558576, 213.955246
3968, -3.64751936, 3.3970556, 207.581444
3969, -5.06492431, -1.93766536, 201.83636
3970, 15.2432755, -0.197207369, 203.7107
3971, 3.45113044, 9.72012629, 214.390905
3972, -6.17694385, -5.53846766, 197.958573
3973, 4.22575857, 1.51858234, 205.558473
3974, -10.8716205, 1.50920879, 205.548379
3975, 15.4090803, -4.89895248, 198.647282
3976, -15.2672697, -4.97931968, 198.560733
3977, 7.75533959, 1.68552333, 205.738256
3978, 6.38328553, -3.44912401, 200.208636
3979, -3.7987321, -3.79254252, 199.8388
3980, -9.31739246, -8.74129865, 194.509371
3981, 13.1163817, -1.85625925, 201.924028
3982, -9.27137346, -6.26850974, 197.172374
3983, -13.5193027, -1.78998274, 201.995403
3984, -5.07149158, 5.21637389, 209.54071
3985, 9.36363277, 3.69348797, 207.900679
3986, 6.62936315, 9.42781818, 214.076112
3987, -13.7120674, 1.36369422, 205.391671
3988, 6.76528496, -6.40890986, 197.021174
3989, 15.9972597, -6.20885186, 197.236621
3990, 9.62393457, -9.92154167, 193.23834
3991, -2.4483605, -5.71204966, 197.771639
3992, -8.38160421, -4.68477612, 198.877933
3993, -15.939744, -6.25686092, 197.184919
3994, 7.72023027, 5.98445231, 210.367872
3995, 16.6076485, 1.7928985, 205.853891
3996, 8.20704852, -8.05112478, 195.252635
3997, 15.2095312, 7.39398597, 211.885831
3998, -16.9853537, -3.41414353, 200.246307
3999, -13.1788894, 11.6757689, 216.496982
4000, -16.2002526, 6.75029845, 211.192629
4001, 5.78272703, 7.47206042, 211.969911
4002, -10.6090062, 9.08566568, 213.70764
4003, -3.54306989, 6.94913759, 211.406764
4004, -1.121776, -7.45826567, 195.891099
4005, 12.6856721, 11.7175646, 216.541993
4006, -10.4699444, -10.5625018, 192.548075
4007, 5.52511169, -4.74747218, 198.810415
4008, 4.94632344, -8.01358281, 195.293065
4009, 2.19685994, -7.67663359, 195.655933
4010, -12.5857436, 6.78194654, 211.226712
4011, -16.5558823, 1.31948633, 205.344062
4012, 8.52447573, 11.8768715, 216.713554
4013, 13.9929936, 9.57748677, 214.237293
4014, 18.0305977, 3.45623516, 207.645176
4015, -21.6960188, 7.82280698, 212.347638
4016, -18.7603875, 1.93512462, 206.007057
4017, -3.42075049, 10.5900199, 215.327714
4018, 4.14854874, -3.24816156, 200.425057
4019, -11.2955276, -8.90780494, 194.330056
4020, -13, -11.6956754, 205.144894
4021, -13, -10.8406789, 209.470574
4022, -13, -9.87478522, 214.622008
4023, -13, -9.63782771, 218.444711
4024, -13, -9.90804733, 222.427795
4025, -13, -10.08222, 201.225331
4026, -17.3137254, -7.19203648, 197.039818
4027, 22.5637261, -14.5150013, 192.535651
4028, 31.1696127, -3.05555984, 203.488598
4029, 28.2905943, -12.957714, 199.824393
4030, 36.2646603, -11.1765421, 209.973204
4031, 38.7088586, -3.29471536, 213.084002
4032, 28.7642512, -5.57025593, 200.427229
4033, 31.2531017, -7.49637317, 203.594857
4034, 33.7160801, -5.05260909, 206.729556
4035, 36.0617668, 2.03835582, 209.714976
4036, 33.9828817, -11.6053014, 207.069122
4037, 25.5279995, -13.692504, 196.308363
4038, 26.3588897, -8.08495203, 197.36586
4039, 33.3743654, -0.816262708, 206.294647
4040, 35.975417, -2.65287001, 209.605076
4041, 31.4883135, -12.0126321, 203.894217
4042, 38.70031, 1.01136427, 213.073122
4043, 38.3664369, 4.5367933, 212.648192
4044, 23.8884136, -10.3593969, 194.221617
4045, 38.7088586, -7.57682921, 213.084002
4046, 35.6966954, -7.37224375, 209.25034
4047, 29.1236466, -9.49409559, 200.884641
4048, 20.9015408, -12.4708512, 190.420143
4049, 38.8877732, -11.3762535, 213.311711
4050, 33.2314568, -8.41796602, 206.112763
4051, 22.2290387, -11.3154573, 192.109686
4052, 26.6489755, -11.0991547, 197.73506
4053, 18.6276785, -20.5014185, 189.246454
4054, 13.578443, -20.4343838, 187.085607
4055, 15.7950226, -17.417229, 176.873698
4056, 17.7365819, -20.2366429, 186.41633
4057, 16.1539822, -11.2393607, 155.96399
4058, 16.4869702, -10.2660986, 152.669872
4059, 15.9021174, -16.0094, 172.108739
4060, 15.9134987, -14.6616864, 167.547246
4061, 15.9144681, -13.3239921, 163.019665
4062, 15.4136901, -12.2704144, 159.45371
4063, 13, -8.51017575, 160.588687
4064, 13, -11.0803226, 169.287646
4065, 13, -4.74353274, 157.407866
4066, 13, -12.3246464, 174.97513
4067, 13, -6.65183915, 166.448192
4068, 13, -8.25472244, 176.501013
4069, 13, -18.9015498, 186.813703
4070, 13, -8.27024792, 172.346993
4071, 13, -10.3422916, 164.77654
4072, 13, -4.60962302, 162.069187
4073, 13, -8.08133002, 156.239907
4074, 13, -1.76144036, 157.928309
4075, -13, -8.51017575, 160.588687
4076, -13, -11.0803226, 169.287646
4077, -13, -4.74353274, 157.407866
4078, -13, -12.3246464, 174.97513
4079, -13, -6.65183915, 166.448192
4080, -13, -8.25472244, 176.501013
4081, -13, -18.9015498, 186.813703
4082, -13, -8.27024792, 172.346993
4083, -13, -10.3422916, 164.77654
4084, -13, -4.60962302, 162.069187
4085, -13, -8.08133002, 156.239907
4086, -13, -1.76144036, 157.928309
4087, -13.578443, -20.4343838, 187.085607
4088, -15.7950226, -17.417229, 176.873698
4089, -17.7365819, -20.2366429, 186.41633
4090, -16.1539822, -11.2393607, 155.96399
4091, -16.4869702, -10.2660986, 152.669872
4092, -15.9021174, -16.0094, 172.108739
4093, -15.9134987, -14.6616864, 167.547246
4094, -15.9144681, -13.3239921, 163.019665
4095, -15.4136901, -12.2704144, 159.45371
4096, 58.4614806, 37.0579215, 240.95704
4097, 49.3200592, 27.517902, 229.991847
4098, 54.4170476, 32.3396678, 235.813724
4099, 45.2179173, 22.1770881, 224.449242
4100, 51.8362909, 29.8596511, 232.84327
4101, 47.4539494, 24.5903092, 227.178152
4102, 55.7236786, 35.79759, 238.61031
4103, 44.5465233, 18.2266077, 221.736403
4104, 56.5342407, 38.961469, 240.943134
4105, 3.68103984, 13.5306009, 216.763015
4106, 0.181649699, 11.6142649, 213.697441
4107, 0.486048065, 20.4880821, 222.574172
4108, 3.28849807, 13.0721531, 214.65857
4109, 3.95670636, 18.0834831, 219.545703
4110, -4.00967853, 14.1371208, 215.958687
4111, -4.366629, 16.9252366, 218.965412
4112, -17.5166155, 16.2974884, 218.585053
4113, -16.4707183, 22.8743246, 225.228861
4114, -16.0532433, 17.8837664, 220.013733
4115, -19.8735471, 15.5585868, 217.51737
4116, -22.9459909, 16.6424519, 219.192193
4117, -19.5163434, 24.5476696, 226.769166
4118, -22.8573229, 23.5419561, 225.167736
4119, 22.4833849, 16.2974886, 218.585053
4120, 23.5292817, 22.8743246, 225.228861
4121, 23.9467568, 17.8837665, 220.013734
4122, 20.1264529, 15.5585868, 217.51737
4123, 17.0540093, 16.6424517, 219.192192
4124, 20.4836569, 24.5476696, 226.769166
4125, 17.1426776, 23.5419565, 225.167736
4126, -19, -11.0522158, 185.215471
4127, -19, -2.29545455, 150.293521
4128, -19, -4.00735808, 157.371947
4129, -19, -6.72841317, 166.618416
4130, -19, -9.46950245, 175.859205
4131, -19, -6.09848485, 149.512786
4132, -19, -10.6979372, 181.343794
4133, -19, -14.8834988, 183.731469
4134, -19, -5.37289417, 161.993762
4135, -19, -8.0929562, 171.251662
4136, -19, -4.89256752, 153.291473
4137, -19, -13.4624533, 177.844733
4138, -19, -12.2670907, 172.520011
4139, -19, -10.8475495, 167.868941
4140, -19, -9.42092318, 163.185711
4141, -19, -8.03993021, 158.69314
4142, -19, -17, 185.809558
4143, -19, -7.43330578, 152.289669
4144, -19, -7.48225186, 155.400317
4145, -19, -1.66214578, 153.784593
4146, -15.6943807, -8.11337012, 185.999099
4147, -15.98703, 1.36509431, 153.918142
4148, -15.9898622, 0.0124762063, 158.496234
4149, -16.0013182, 2.57185379, 149.833726
4150, -15.9877695, -1.34508068, 163.091042
4151, -15.984903, -2.70346069, 167.688636
4152, -15.9819544, -4.06197788, 172.286694
4153, -15.9790392, -5.42051795, 176.88483
4154, -15.94557, -6.78147014, 181.49113
4155, 35.582022, 9.70590929, 211.201379
4156, 24.0789546, -3.0853356, 196.084918
4157, 15.6943807, -8.11337012, 185.999099
4158, 15.98703, 1.36509431, 153.918142
4159, 15.9898622, 0.0124762063, 158.496234
4160, 16.0013182, 2.57185379, 149.833726
4161, 15.9877695, -1.34508068, 163.091042
4162, 15.984903, -2.70346069, 167.688636
4163, 15.9819544, -4.06197788, 172.286694
4164, 15.9790392, -5.42051795, 176.88483
4165, 15.94557, -6.78147014, 181.49113
4166, -16.9, -10.8625, 226
4167, -15.9562682, -8.07015306, 226
4168, -14.8366097, -10.8475219, 226
4169, -16, -5.5, 219
4170, -16, -6.16666667, 209.666667
4171, -16, -5.83333333, 214.333333
4172, -16, -6.5, 205
4173, -16, -5.2144037, 222.998348
4174, -16, -6.7855963, 201.001652
4175, 30.5468984, 6.34570392, 212.780063
4176, 16.9, -7.1375, 226
4177, 15.9562682, -9.92984694, 226
4178, 14.8366097, -7.15247813, 226
4179, 16, -5.5, 219
4180, 16, -6.16666667, 209.666667
4181, 16, -5.83333333, 214.333333
4182, 16, -6.5, 205
4183, 16, -6.7855963, 201.001652
4184, 16, -5.2144037, 222.998348
4185, 19, -2.29545455, 150.293521
4186, 19, -13, 185.401924
4187, 19, -4.00735808, 157.371947
4188, 19, -6.72841317, 166.618416
4189, 19, -9.46950245, 175.859205
4190, 19, -9.84529283, 186.379751
4191, 19, -6.09848485, 149.512786
4192, 19, -10.6154739, 180.545891
4193, 19, -5.37289417, 161.993762
4194, 19, -8.0929562, 171.251662
4195, 19, -4.89256752, 153.291473
4196, 19, -14.8258837, 181.491864
4197, 19, -13.5459033, 177.345906
4198, 19, -16.5753552, 184.926651
4199, 19, -12.2670907, 172.520011
4200, 19, -10.8475495, 167.868941
4201, 19, -9.42092318, 163.185711
4202, 19, -8.03993021, 158.69314
4203, 19, -7.43330578, 152.289669
4204, 19, -7.48225186, 155.400317
4205, 19, -1.66214578, 153.784593
4206, 4.76989898, -11.4997366, 168.760812
4207, 10.8369022, -8.09276468, 176.344566
4208, 6.07175068, -7.55265703, 170.388126
4209, 10.5106378, -14.1376888, 175.936735
4210, 7.95406765, -12.0650929, 172.741022
4211, 8.38873508, -8.18621791, 173.284357
4212, 4.25275287, -8.00957381, 168.114379
4213, 10.1896117, -10.9176224, 175.535453
4214, 2.21429244, -12.9314735, 171.969428
4215, 10.8427817, -10.0168045, 182.755039
4216, 5.9684343, -9.37757105, 176.662105
4217, 7.80950697, -14.0417095, 178.963446
4218, 2.6140848, -8.70952459, 172.469168
4219, 10.5495655, -16.133774, 182.388519
4220, 8.405879, -10.1150603, 179.708911
4221, 4.81171762, -13.3498749, 175.216209
4222, 10.1570272, -12.755565, 181.897846
4223, 10.9828108, -3.60917722, 155.473049
4224, 4.72525682, -8.34883721, 163.294991
4225, 9.53572693, -7.87824437, 157.281903
4226, 7.0289461, -5.12321993, 160.415379
4227, 11.5983412, -7.99707135, 154.703636
4228, 7.16159178, -8.85018995, 160.249572
4229, 4.5650235, -4.79310557, 163.495283
4230, 8.9132816, -3.16184464, 158.05996
4231, 3.84314819, -11.3942593, 164.397627
4232, -4.76989898, -11.4997366, 168.760812
4233, -10.8369022, -8.09276468, 176.344566
4234, -6.07175068, -7.55265703, 170.388126
4235, -10.5106378, -14.1376888, 175.936735
4236, -7.95406765, -12.0650929, 172.741022
4237, -8.38873508, -8.18621791, 173.284357
4238, -4.25275287, -8.00957381, 168.114379
4239, -10.1896117, -10.9176224, 175.535453
4240, -2.21429244, -12.9314735, 171.969428
4241, -10.8427817, -10.0168045, 182.755039
4242, -5.9684343, -9.37757105, 176.662105
4243, -7.80950697, -14.0417095, 178.963446
4244, -2.6140848, -8.70952459, 172.469168
4245, -10.5495655, -16.133774, 182.388519
4246, -8.405879, -10.1150603, 179.708911
4247, -4.81171762, -13.3498749, 175.216209
4248, -10.1570272, -12.755565, 181.897846
4249, -10.9828108, -3.60917722, 155.473049
4250, -4.72525682, -8.34883721, 163.294991
4251, -9.53572693, -7.87824437, 157.281903
4252, -7.0289461, -5.12321993, 160.415379
4253, -11.5983412, -7.99707135, 154.703636
4254, -7.16159178, -8.85018995, 160.249572
4255, -4.5650235, -4.79310557, 163.495283
4256, -8.9132816, -3.16184464, 158.05996
4257, -3.84314819, -11.3942593, 164.397627
4258, 13.4202903, -8.11437325, 145.387109
4259, 10.9021269, -8.6573883, 144
4260, 14.3082707, -9.60738, 144
4261, 14.2036665, -11.3145386, 144
4262, 12.4861273, -10.2347206, 144
4263, 10.3776509, -11.0484218, 144
4264, 17.5213506, -9.76372128, 142.478649
4265, 19.1216415, -10.8139015, 140.878359
4266, 17.4285984, -11.5155246, 142.571402
4267, 11.1319922, -1.37433663, 148.883448
4268, 2.16400712, -7.38092308, 160.093429
4269, 7.04919485, -2.65509189, 153.986944
4270, 9.41142243, -5.71478256, 151.03416
4271, 11.5063462, -6.01032155, 148.415505
4272, 4.39984132, -4.31399122, 157.298636
4273, 6.30812266, -6.91873098, 154.913285
4274, 2.00243215, -3.82891136, 160.295398
4275, 8.94145882, -1.21460764, 151.621614
4276, 4.30676657, -8.41802132, 157.41498
4277, -11.1319922, -1.37433663, 148.883448
4278, -2.16400712, -7.38092308, 160.093429
4279, -7.04919485, -2.65509189, 153.986944
4280, -9.41142243, -5.71478256, 151.03416
4281, -11.5063462, -6.01032155, 148.415505
4282, -4.39984132, -4.31399122, 157.298636
4283, -6.30812266, -6.91873098, 154.913285
4284, -2.00243215, -3.82891136, 160.295398
4285, -8.94145882, -1.21460764, 151.621614
4286, -4.30676657, -8.41802132, 157.41498
4287, -17.5213506, -9.76372128, 142.478649
4288, -19.1216415, -10.8139015, 140.878359
4289, -17.4285984, -11.5155246, 142.571402
4290, -10.9021269, -8.6573883, 144
4291, -14.3082707, -9.60738, 144
4292, -14.2036665, -11.3145386, 144
4293, -12.4861273, -10.2347206, 144
4294, -10.3776509, -11.0484218, 144
4295, -13.4202903, -8.11437325, 145.387109
4296, 20, -6.7, 108.428571
4297, 20, -6.7, 103.571429
4298, 17.5213506, -9.76372128, 69.5213506
4299, 19.1216415, -10.8139015, 71.1216415
4300, 17.4285984, -11.5155246, 69.4285984
4301, 10.492483, -6.7, 128.075884
4302, 10.492483, -6.7, 83.9241156
4303, 10.6, -6.7, 141.975
4304, 10.6, -6.7, 70.025
4305, 11.66875, -11.9, 85.53125
4306, 11.6543658, -9.73440169, 85.5456342
4307, 10.4859012, -10.6560801, 86.7140988
4308, 9.32882318, -11.4335132, 87.8711768
4309, 10.2504179, -8.55481509, 86.9495821
4310, 11.7804395, -7.92888108, 85.4195605
4311, 10.7333346, -11.9753084, 86.4666654
4312, 12.5669611, -8.85265655, 84.6330389
4313, 15.6128276, -8, 91.2142857
4314, 15.6128276, -8, 120.785714
4315, 15.4681985, -8, 106
4316, 15.4545955, -8, 101.155556
4317, 15.4545955, -8, 110.844444
4318, 11.66875, -11.9, 126.46875
4319, 11.6543658, -9.73440169, 126.454366
4320, 10.4859012, -10.6560801, 125.285901
4321, 9.32882318, -11.4335132, 124.128823
4322, 10.2504179, -8.55481509, 125.050418
4323, 11.7804395, -7.92888108, 126.580439
4324, 10.7333346, -11.9753084, 125.533335
4325, 12.5669611, -8.85265655, 127.366961
4326, 12.6379165, -13.2, 138.294252
4327, 12.5560685, -13.2, 73.7366892
4328, 17.8663801, -13.2, 137.679897
4329, 16.596571, -13.2, 134.202447
4330, 17.8968952, -13.2, 74.29852
4331, 16.6021438, -13.2, 77.800576
4332, 12.1691599, -13.2, 70.9974713
4333, 15.0238614, -13.2, 71.5160491
4334, 16.4127753, -13.2, 128.837775
4335, 16.4127753, -13.2, 83.1622247
4336, 15.4094738, -13.2, 139.950413
4337, 14.2600719, -13.2, 131.361036
4338, 14.2608766, -13.2, 80.6404342
4339, 13.1860761, -13.2, 134.828501
4340, 13.2125819, -13.2, 77.2015191
4341, 12.7395172, -13.2, 141.440636
4342, 18.4775421, -13.2, 126.583741
4343, 18.4775421, -13.2, 85.4162594
4344, 10.259849, -13.2, 142.034134
4345, 15.0231984, -13.2, 136.952484
4346, 15.0449064, -13.2, 75.0796635
4347, 18.1128417, -13.2, 131.444739
4348, 18.1135122, -13.2, 80.5558437
4349, 11.865018, -13.2, 130.090259
4350, 11.8652192, -13.2, 81.9101085
4351, 8.2, -9.70321113, 136.978801
4352, 8.2, -9.5901876, 141.060002
4353, 8.2, -9.73460085, 75.1743132
4354, 8.2, -9.73800724, 79.9248855
4355, 8.2, -9.73556951, 84.6916476
4356, 8.2, -9.75436476, 71.0686575
4357, 8.2, -9.73222607, 89.4611079
4358, 8.2, -9.72879997, 94.231018
4359, 8.2, -9.72542841, 99.001003
4360, 8.2, -9.72213424, 103.771
4361, 8.2, -9.71892128, 108.541
4362, 8.2, -9.71579016, 113.311
4363, 8.2, -9.71274098, 118.081
4364, 8.2, -9.70977377, 122.851
4365, 8.2, -9.70688852, 127.621
4366, 8.2, -9.73501661, 132.4083
4367, 8.2, -11.7480375, 141.812
4368, 21, -9.95, 132.602041
4369, 21, -9.95, 127.243504
4370, 21, -9.95, 98.9285714
4371, 21, -9.95, 108.357143
4372, 21, -9.95, 117.785714
4373, 21, -9.95, 79.3979592
4374, 21, -9.95, 89.5
4375, 21, -9.95, 94.2142857
4376, 21, -9.95, 103.642857
4377, 21, -9.95, 113.071429
4378, 21, -9.95, 122.501268
4379, 21, -9.95, 84.756496
4380, 21, -11.1107143, 136.402332
4381, 21, -8.60925656, 136.44651
4382, 21, -11.1107143, 75.5976676
4383, 21, -8.60925656, 75.5534896
4384, -10.492483, -6.7, 128.075884
4385, -10.492483, -6.7, 83.9241156
4386, -10.6, -6.7, 141.975
4387, -10.6, -6.7, 70.025
4388, -11.66875, -11.9, 85.53125
4389, -11.6543658, -9.73440169, 85.5456342
4390, -10.4859012, -10.6560801, 86.7140988
4391, -9.32882318, -11.4335132, 87.8711768
4392, -10.2504179, -8.55481509, 86.9495821
4393, -11.7804395, -7.92888108, 85.4195605
4394, -10.7333346, -11.9753084, 86.4666654
4395, -12.5669611, -8.85265655, 84.6330389
4396, -15.6128276, -8, 120.785714
4397, -15.6128276, -8, 91.2142857
4398, -15.4681985, -8, 106
4399, -15.4545955, -8, 101.155556
4400, -15.4545955, -8, 110.844444
4401, -11.66875, -11.9, 126.46875
4402, -11.6543658, -9.73440169, 126.454366
4403, -10.5264837, -10.6829846, 125.326484
4404, -9.225, -11.275, 124.025
4405, -10.1097271, -8.94725643, 124.909727
4406, -11.768476, -7.96225194, 126.568476
4407, -10.5798321, -12.0144425, 125.379832
4408, -12.5645684, -8.85933073, 127.364568
4409, -10.0828289, -11.6931068, 124.882829
4410, -12.6379165, -13.2, 138.294252
4411, -12.5118372, -13.2, 73.9
4412, -17.8663801, -13.2, 137.679897
4413, -16.596571, -13.2, 134.202447
4414, -17.7744712, -13.2, 74.0803325
4415, -16.5875695, -13.2, 77.7746013
4416, -12.362646, -13.2, 70.9860025
4417, -16.4127753, -13.2, 83.1622247
4418, -16.4127753, -13.2, 128.837775
4419, -15.4094738, -13.2, 139.950413
4420, -14.2600719, -13.2, 131.361036
4421, -14.2587946, -13.2, 80.6367235
4422, -13.1860761, -13.2, 134.828501
4423, -13.1763839, -13.2, 77.1917904
4424, -15.1929489, -13.2, 71.3315265
4425, -12.7395172, -13.2, 141.440636
4426, -18.4775421, -13.2, 126.583741
4427, -18.4775421, -13.2, 85.4162594
4428, -10.259849, -13.2, 142.034134
4429, -15.0231984, -13.2, 136.952484
4430, -15.0449064, -13.2, 75.0796635
4431, -18.1128417, -13.2, 131.444739
4432, -18.1118126, -13.2, 80.5528145
4433, -11.865018, -13.2, 130.090259
4434, -11.8646986, -13.2, 81.9091809
4435, -21, -9.95, 113.071429
4436, -21, -9.95, 103.642857
4437, -21, -9.95, 94.2142857
4438, -21, -9.95, 98.9285714
4439, -21, -9.95, 84.7857143
4440, -21, -9.95, 122.5
4441, -21, -9.95, 108.357143
4442, -21, -9.95, 127.214286
4443, -21, -9.95, 117.785714
4444, -21, -9.95, 89.5
4445, -21, -9.95, 79.3979592
4446, -21, -9.95, 132.602041
4447, -21, -8.78928571, 75.5976676
4448, -21, -11.1107143, 136.402332
4449, -21, -8.60925656, 136.44651
4450, -21, -11.2907434, 75.5534896
4451, -20, -6.7, 103.571429
4452, -20, -6.7, 108.428571
4453, -8.2, -9.70321113, 136.978801
4454, -8.2, -9.5901876, 141.060002
4455, -8.2, -9.73460085, 75.1743132
4456, -8.2, -9.73800724, 79.9248855
4457, -8.2, -9.73556951, 84.6916476
4458, -8.2, -9.75436476, 71.0686575
4459, -8.2, -9.73222607, 89.4611079
4460, -8.2, -9.72879997, 94.231018
4461, -8.2, -9.72542841, 99.001003
4462, -8.2, -9.72213424, 103.771
4463, -8.2, -9.71892128, 108.541
4464, -8.2, -9.71579016, 113.311
4465, -8.2, -9.71274098, 118.081
4466, -8.2, -9.70977377, 122.851
4467, -8.2, -9.70688852, 127.621
4468, -8.2, -9.73501661, 132.4083
4469, -8.2, -11.7480375, 141.812
4470, -17.5213506, -9.76372128, 69.5213506
4471, -19.1216415, -10.8139015, 71.1216415
4472, -17.4285984, -11.5155246, 69.4285984
4473, 8.45, -9.75, 115.857143
4474, 8.45, -9.75, 110.928571
4475, 8.45, -9.75, 101.071429
4476, 8.45, -9.75, 96.1428571
4477, 8.45, -9.75, 106
4478, 8.45, -9.75, 91.7772907
4479, 8.45, -9.75, 120.222709
4480, 16.6204145, -11.4665264, 87.4204145
4481, 15.1013816, -10.6, 85.9013816
4482, 16.6393592, -9.73330529, 87.4393592
4483, 17.95, -10.6, 115.857143
4484, 17.95, -10.6, 120.375
4485, 17.95, -10.6, 110.928571
4486, 17.95, -10.6, 96.1428571
4487, 17.95, -10.6, 91.625
4488, 17.95, -10.6, 101.071429
4489, 17.95, -10.6, 106
4490, 14.5295855, -11.4665264, 126.670414
4491, 16.0486184, -10.6, 125.151382
4492, 14.5106408, -9.73330529, 126.689359
4493, 10.7431822, -16.1406121, 76.2509388
4494, 10.3692439, -14.6701769, 70.8991057
4495, 10.5774104, -15.436413, 72.9993021
4496, 11.3108847, -18.0570693, 74.5516427
4497, -8.35658713, -16.0995191, 140
4498, 8.35658713, -16.0995191, 140
4499, -2.05, -16.3507042, 140
4500, 1.72775431, -19.5149203, 140
4501, 6.11835799, -19.8550793, 140
4502, -6.34435621, -20.0414125, 140
4503, 4.33137306, -16.697683, 140
4504, -2.55163603, -20.1337388, 140
4505, 6.84557178, -14.3607525, 140
4506, 8.35053973, -14.3650679, 140
4507, -4.94787085, -16.6971333, 140
4508, -6.76089159, -14.3193305, 140
4509, 1.49487808, -15.6938929, 140
4510, 9.22832236, -19.4309197, 140
4511, -9.273522, -19.4681863, 140
4512, 0.191978158, -12.8, 127.652999
4513, 4.12736663, -12.8, 118.26717
4514, -4.04307806, -12.8, 108.8
4515, 4.10984482, -12.8, 80.0499156
4516, 4.04307806, -12.8, 99.2
4517, 4.04307806, -12.8, 89.6
4518, -4.04307806, -12.8, 84.8
4519, -3.97703465, -12.8, 74.9807588
4520, -4.04307806, -12.8, 94.4
4521, 1.93535922, -12.8, 71.3941342
4522, -3.83235233, -12.8, 119.028289
4523, 4.04307806, -12.8, 108.8
4524, 4.25544296, -12.8, 128.049301
4525, 2.63224981, -12.8, 124.511896
4526, -4.174683, -12.8, 127.208277
4527, -1.48038086, -12.8, 123.589672
4528, -4.04307806, -12.8, 80
4529, -4.04307806, -12.8, 99.2
4530, 4.05585288, -12.8, 84.8021656
4531, 4.04307806, -12.8, 94.4
4532, 4.04307806, -12.8, 104
4533, -4.04307806, -12.8, 89.6
4534, -4.04307806, -12.8, 104
4535, 4.09507411, -12.8, 113.577862
4536, -4.04307806, -12.8, 113.6
4537, 0.0509538261, -12.8, 77.8596943
4538, 0.0217492339, -12.8, 82.4519626
4539, -1.42108547e-14, -12.8, 116
4540, -7.10542736e-15, -12.8, 111.2
4541, -3.55271368e-15, -12.8, 106.4
4542, 0, -12.8, 101.6
4543, 0, -12.8, 87.2
4544, 1.77635684e-15, -12.8, 96.8
4545, 0, -12.8, 92
4546, -2.05, -12.8, 71.5507042
4547, 3.97747462, -12.8, 75.0026216
4548, 6.54888972, -12.8, 128.591149
4549, -6.47689071, -12.8, 128.415266
4550, 0.850746748, -12.8, 120.383549
4551, -5.25748756, -12.8, 123.2
4552, 4.84863706, -12.8, 121.804731
4553, -5.30540693, -12.8, 71.0662926
4554, 5.28256677, -12.8, 71.0393512
4555, -0.0126493959, -12.8, 74.1575826
4556, -8.45, -9.75, 96.1428571
4557, -8.45, -9.75, 101.071429
4558, -8.45, -9.75, 110.928571
4559, -8.45, -9.75, 115.857143
4560, -8.45, -9.75, 106
4561, -8.45, -9.75, 120.222709
4562, -8.45, -9.75, 91.7772907
4563, -14.4822237, -9.82, 85.2822237
4564, -16.1054918, -10.6193372, 86.9054918
4565, -14.4768165, -11.6056196, 85.2768165
4566, -16.6677763, -9.82, 124.532224
4567, -15.0445082, -10.6193372, 126.155492
4568, -16.6731835, -11.6056196, 124.526817
4569, -17.95, -10.6, 96.1428571
4570, -17.95, -10.6, 91.625
4571, -17.95, -10.6, 101.071429
4572, -17.95, -10.6, 115.857143
4573, -17.95, -10.6, 120.375
4574, -17.95, -10.6, 110.928571
4575, -17.95, -10.6, 106
4576, -10.7431822, -16.1406121, 76.2509388
4577, -10.3692439, -14.6701769, 70.8991057
4578, -10.5774104, -15.436413, 72.9993021
4579, -11.3108847, -18.0570693, 74.5516427
4580, 11.5439335, -18.8949805, 136.848957
4581, 11.4560665, -18.6050195, 81.151043
4582, 10.9937236, -17.0792878, 127.244566
4583, 11.1978103, -17.752774, 118.538462
4584, 12.0062764, -20.4207122, 90.7554343
4585, 11.2478041, -17.9177534, 109.681319
4586, 11.8021897, -19.747226, 99.4615385
4587, 11.9175893, -20.1280445, 123.188784
4588, 11.9076024, -20.0950879, 114.677656
4589, 11.0824107, -17.3719555, 94.8112159
4590, 11.254946, -17.9413219, 103.646782
4591, 11.9316946, -20.1745923, 85.382244
4592, 11.0683054, -17.3254077, 132.617756
4593, 12.2239716, -21.1391064, 133.475221
4594, 10.7760284, -16.3608936, 84.5247786
4595, 10.6588913, -15.9743412, 137.132607
4596, 12.3411087, -21.5256588, 80.8673926
4597, 10.646419, -15.9331826, 80.8890105
4598, 12.353581, -21.5668174, 137.11099
4599, 12.1307443, -20.8314563, 128.435651
4600, 10.8218246, -16.5120213, 123.117439
4601, 12.2315909, -21.16425, 118.538462
4602, 10.8056665, -16.4586994, 113.885101
4603, 11.9662194, -20.288524, 106.615385
4604, 12.1781754, -20.9879787, 94.8825608
4605, 10.8692557, -16.6685437, 89.5643495
4606, 10.7684091, -16.33575, 99.4615385
4607, 6.70353797, -16.4962909, 70.5734957
4608, -6.47828809, -16.2196437, 70.2882925
4609, -2.16666667, -21.0870994, 75.3062881
4610, 6.52125957, -21.1077112, 75.3275373
4611, -7.08114889, -20.0407262, 74.2275528
4612, 2.16666667, -21.0870994, 75.3062881
4613, 0.010829561, -18.5096952, 72.6491703
4614, 4.39987899, -18.7141273, 72.8599251
4615, -3.52717938, -18.4209845, 72.557716
4616, 8.11570723, -18.6328177, 72.7761008
4617, 2.32092199, -16.3923216, 70.466311
4618, -2.15736186, -16.1473145, 70.2137263
4619, -11.5439335, -18.8949805, 136.848957
4620, -11.5439335, -18.8949805, 81.151043
4621, -10.9179106, -16.8291049, 128.03194
4622, -11.7521959, -19.5822466, 119.21978
4623, -10.9937236, -17.0792878, 90.7554343
4624, -11.1978103, -17.752774, 109
4625, -11.1978103, -17.752774, 99.4615385
4626, -11.8021897, -19.747226, 104.230769
4627, -11.9175893, -20.1280445, 94.8112159
4628, -11.1888814, -17.7233086, 124.20862
4629, -11.745054, -19.5586781, 113.185243
4630, -11.0683054, -17.3254077, 85.382244
4631, -11.0574749, -17.2896673, 132.730238
4632, -12.2221666, -21.1331496, 133.493968
4633, -12.2239716, -21.1391064, 84.5247786
4634, -10.6588913, -15.9743412, 80.8673926
4635, -12.353581, -21.5668174, 80.8890105
4636, -10.6573441, -15.9692354, 137.148676
4637, -12.35322, -21.565626, 137.114739
4638, -12.0855915, -20.6824519, 128.178078
4639, -12.2315909, -21.16425, 123.307692
4640, -11.0337806, -17.211476, 116.153846
4641, -12.2315909, -21.16425, 109
4642, -10.8218246, -16.5120213, 94.8825608
4643, -10.7684091, -16.33575, 104.230769
4644, -12.1307443, -20.8314563, 89.5643495
4645, -12.2315909, -21.16425, 99.4615385
4646, 8.87407119, -23.7, 123.313855
4647, 8.84528087, -23.7, 109.02422
4648, -8.34158087, -23.7, 94.7348916
4649, -2.14526426, -23.7, 136.628868
4650, 2.16666667, -23.7, 81.7527767
4651, -8.26664763, -23.7, 118.561549
4652, -8.33750527, -23.7, 104.272221
4653, 8.84553073, -23.7, 99.4668723
4654, -8.26662372, -23.7, 128.079357
4655, 8.80756715, -23.7, 89.9424527
4656, 8.77916882, -23.7, 132.627336
4657, -8.48971584, -23.7, 85.4163691
4658, 8.8719575, -23.7, 128.041481
4659, 4.77239866, -23.7, 125.691372
4660, 4.75579124, -23.7, 120.946861
4661, 0.646362252, -23.7, 123.329433
4662, 0.613589465, -23.7, 118.589591
4663, 0.716594728, -23.7, 128.058974
4664, 4.73225014, -23.7, 116.195262
4665, 0.601252663, -23.7, 113.839466
4666, -3.59001201, -23.7, 125.689314
4667, -3.38899728, -23.7, 130.382667
4668, -8.02529532, -23.7, 132.988071
4669, -3.83366266, -23.7, 116.202547
4670, -3.79089373, -23.7, 111.456119
4671, 0.533532956, -23.7, 109.074739
4672, -3.71838752, -23.7, 106.700743
4673, 0.515600422, -23.7, 104.309944
4674, -3.75943695, -23.7, 101.914022
4675, 0.487321473, -23.7, 99.537271
4676, -3.78142806, -23.7, 97.1474042
4677, 0.444920566, -23.7, 94.7815865
4678, -3.95846071, -23.7, 92.4002157
4679, 0.344738414, -23.7, 90.118884
4680, -4.20820723, -23.7, 87.7420789
4681, -8.22830097, -23.7, 109.06017
4682, -8.28126992, -23.7, 123.320561
4683, 4.57027275, -23.7, 92.3915801
4684, 4.479985, -23.7, 87.9427695
4685, 8.59486065, -23.7, 85.0368023
4686, -8.36999186, -23.7, 99.4986026
4687, 4.79826273, -23.7, 130.387964
4688, 4.73711146, -23.7, 134.808784
4689, 8.7782905, -23.7, 94.7076276
4690, 0.261434279, -23.7, 132.937202
4691, 4.66173985, -23.7, 101.899619
4692, -8.60539341, -23.7, 89.994654
4693, -4.34806134, -23.7, 83.286712
4694, 4.63134598, -23.7, 97.1307594
4695, -8.49662226, -23.7, 113.791032
4696, -3.78527342, -23.7, 120.948832
4697, 4.71242261, -23.7, 111.439792
4698, 8.8582649, -23.7, 113.792275
4699, 4.68194785, -23.7, 106.66318
4700, 8.83451955, -23.7, 104.246342
4701, 8.86708373, -23.7, 118.554687
4702, 0.219452767, -23.7, 85.2024457
4703, 6.5, -23.7, 81.5633592
4704, -6.24482323, -23.7, 136.677422
4705, 1.43732296, -23.7, 136.874971
4706, -7.92855028, -23.7, 81.600756
4707, 8.19109271, -23.7, 136.406696
4708, -1.25905505, -23.7, 81.2483869
4709, 9.95230546, -23.7, 81.0738785
4710, -9.78735704, -23.7, 136.979253
4711, 4.39219302, -23.7, 84.2996307
4712, -3.90858916, -23.7, 133.922846
4713, 4, -14.4, 138
4714, -4, -14.4, 138
4715, -8.8817842e-15, -14.4, 138
4716, -6, -14.4, 136.25
4717, -6, -14.4, 132.75
4718, 6, -14.4, 136.25
4719, 6, -14.4, 132.75
4720, 4, -14.4, 131
4721, -4, -14.4, 131
4722, -8.8817842e-15, -14.4, 131
4723, -7.99360578e-15, -16, 134.535898
4724, 2.99628543, -16, 133.897102
4725, -2.99628543, -16, 133.897102
4726, 4.08638134, -16, 136.25
4727, 15.1630501, -8, 16.1147277
4728, -15.1630501, -8, 16.1147277
4729, -14.6693539, -8, 61.4012416
4730, 14.6693539, -8, 61.4012416
4731, 16.0282257, -8, 64.6922772
4732, -16.0282257, -8, 64.6922772
4733, -15.66615, -8, 11.1364073
4734, 15.66615, -8, 11.1364073
4735, -15.9795473, -8, 54.3648721
4736, 15.9795473, -8, 54.3648721
4737, -16.3562415, -8, 20.1136951
4738, 16.3562415, -8, 20.1136951
4739, -15.9404417, -8, 49.837151
4740, 15.9404417, -8, 49.837151
4741, 15.9907124, -8, 24.0420909
4742, -15.9907124, -8, 24.0420909
4743, 16.1465212, -8, 58.3280828
4744, -16.1465212, -8, 58.3280828
4745, 15.925907, -8, 45.2153448
4746, -15.925907, -8, 45.2153448
4747, -15.9187269, -8, 40.5778577
4748, 15.9187269, -8, 40.5778577
4749, 15.9280296, -8, 28.5640095
4750, -15.9280296, -8, 28.5640095
4751, 15.916032, -8, 35.9377572
4752, -15.916032, -8, 35.9377572
4753, -15.4284274, -8, 32.244417
4754, 15.4284274, -8, 32.244417
4755, -14.4165375, -8, 9.42652824
4756, 14.4165375, -8, 9.42652824
4757, -14.5070564, -8, 66.3882165
4758, 14.5070564, -8, 66.3882165
4759, 10.9831004, -2, 61.4570706
4760, 2.01697011, -2.00022151, 46.3267258
4761, 5.41666667, -4.31938098, 52.0637137
4762, 7.58333333, 0.319380979, 55.7199637
4763, 5.41730467, 0.320103514, 52.0647903
4764, 7.58333333, -4.31938098, 55.7199637
4765, 9.67905855, 0.779425556, 59.2565
4766, 3.3211645, 0.779168995, 48.5275538
4767, 9.67905855, -4.77942556, 59.2565
4768, 3.3209515, -4.7795425, 48.5271944
4769, 11.4935487, 1.11815993, 62.3184522
4770, 1.50645129, 1.11815993, 45.4652253
4771, 11.4935487, -5.11815993, 62.3184522
4772, 1.50645129, -5.11815993, 45.4652253
4773, 6.50010864, -2.00000639, 53.892022
4774, 8.64708505, -2, 57.5150447
4775, 4.34235, -2.00036236, 50.2508043
4776, -10.9831004, -2, 61.4570706
4777, -2.01689961, -2, 46.3266068
4778, -7.58333333, 0.319380979, 55.7199637
4779, -5.41666667, -4.31938098, 52.0637137
4780, -7.58333333, -4.31938098, 55.7199637
4781, -5.41666667, 0.319380979, 52.0637137
4782, -3.32094145, -4.77942556, 48.5271774
4783, -3.32094145, 0.779425556, 48.5271774
4784, -9.67905855, -4.77942556, 59.2565
4785, -9.67905855, 0.779425556, 59.2565
4786, -1.50645129, 1.11815993, 45.4652253
4787, -11.4935487, 1.11815993, 62.3184522
4788, -11.4935487, -5.11815993, 62.3184522
4789, -1.50645129, -5.11815993, 45.4652253
4790, -6.5, -2, 53.8918387
4791, -4.33798949, -2, 50.243446
4792, -8.66798069, -2, 57.5503061
4793, -2.25, 10.5, 4.78571429
4794, -2.10451412, 10.5, 2.14669104
4795, -6.31104378, 10.5, 4.20572059
4796, 1.11478465, 10.5, 5.30266242
4797, 2.84135124, 10.5, 2.08281195
4798, 6.58664995, 10.5, 3.75650953
4799, -11.7765607, 10.5, 3.86457462
4800, 11.815933, 10.5, 3.80040162
4801, 15.085347, 10.5, 5.00639287
4802, -15.0813294, 10.5, 5.01294114
4803, -0.449698963, 10.5, 3.42122558
4804, -4.03676292, 10.5, 2.93461052
4805, 3.66036308, 10.5, 4.46222369
4806, 1.43336, 10.5, 3.36807044
4807, 15.5748049, 10.5, 2.2864076
4808, -15.5703773, 10.5, 2.29362406
4809, 4.74486236, 13.3419087, 3.49883604
4810, -2.866634, 11.5213853, 7.30781088
4811, -4.70794073, 18.6000469, 5.39967815
4812, 3.87225553, 12.3210079, 6.55955465
4813, 2.99818481, 11.460824, 3.45820817
4814, 1.69818396, 10.9232495, 6.18374966
4815, -5.18998878, 14.8671782, 7.47430612
4816, -1.9339956, 10.8496591, 1.52472056
4817, -1.3075374, 10.7160325, 3.35212586
4818, -3.48174259, 11.8238931, 3.54729149
4819, 1.790626, 10.7957945, 1.45690513
4820, -5.40452234, 15.3860022, 3.47951689
4821, 0.911634149, 10.633576, 3.35323143
4822, -0.790829002, 10.6956675, 5.87836015
4823, -4.47781307, 18.8045632, 8.37270334
4824, 4.75885347, 13.7570554, 9.08475104
4825, -4.08117298, 19.6788994, 1.74215845
4826, 0.119215318, 10.7159478, 8.31609939
4827, 2.3629253, 11.2871338, 8.73553462
4828, -4.49865836, 13.066211, 5.63331058
4829, -18, 12.625, 5.79175344
4830, -18, 12.625, 2.19740491
4831, 18, 12.625, 2.20824656
4832, 18, 12.625, 5.80259509
4833, -24.6511096, 22.6960713, 5.46785616
4834, -15.3299219, 17.498719, 7.9282096
4835, -23.7447848, 16.180242, 6.31078952
4836, -16.2386605, 16.0449794, 2.89114281
4837, -16.767508, 15.7355974, 6.25154537
4838, -25.2542957, 19.2805747, 7.75281954
4839, -25.4244989, 19.5911629, 3.46079449
4840, -22.5135923, 15.3847809, 9.26135637
4841, -15.196156, 17.5403646, 4.81115143
4842, -24.0302514, 16.3221916, 2.95064265
4843, -17.5471374, 15.3283972, 8.59882621
4844, -24.3402825, 23.00726, 8.4759992
4845, -24.3378239, 23.3326327, 2.50780156
4846, -14.9989846, 17.7708126, 2.34621732
4847, -19.8014816, 14.7524518, 9.38765491
4848, -14.5, -6.5, 8
4849, -15.25, -4.25, 8
4850, -17.3125, -3.6875, 8
4851, -16.9257812, -5.92578125, 8
4852, -13, -0.726906782, 10.4083562
4853, -13, -3.49953736, 10.2614265
4854, -13, 2.04551554, 10.5428141
4855, -13, -5.76420675, 10.1438538
4856, -17.5833333, -2, 6.21051172
4857, -14.4305556, -2, 6.2370232
4858, -16, -2, 3.2116275
4859, -20, 1.575, 5.91640625
4860, -20, -0.185, 5.8996875
4861, -20, 0.731666667, 3.8996875
4862, -20, -0.0786666667, 1.93814062
4863, -20, 1.6806, 1.96756562
4864, -32.5, 3.5, 4
4865, -47.2916667, 3.5, 4.07291667
4866, -42.5, 3.5, 4
4867, -37.5, 3.5, 4
4868, -27.7083333, 3.5, 4.07291667
4869, -23.75, 3.5, 4.4375
4870, -51.25, 3.5, 4.4375
4871, -56.5, 5, 5.79175344
4872, -56.5, 5, 2.19740491
4873, -56.5, 9, 5.79175344
4874, -56.5, 9, 2.19740491
4875, -43.3531939, 10.5, 4.29742974
4876, -37.0996095, 10.5, 1.98183625
4877, -39.3804426, 10.5, 4.27498505
4878, -47.351971, 10.5, 4.26190863
4879, -33.5630396, 10.5, 3.74924364
4880, -41.7944951, 10.5, 2.02876867
4881, -28.9756657, 10.5, 3.81334722
4882, -51.1624686, 10.5, 3.73624617
4883, -24.6673543, 10.5, 3.9688912
4884, -36.4555215, 10.5, 4.50870727
4885, -10.9830299, -1.99977849, 16.5430484
4886, -2.01689961, -2, 31.6733932
4887, -7.58333333, 0.319380979, 22.2800363
4888, -5.41666667, -4.31938098, 25.9362863
4889, -7.58269533, -4.32010351, 22.2811129
4890, -5.41666667, 0.319380979, 25.9362863
4891, -3.32094145, -4.77942556, 29.4728226
4892, -9.6788355, -4.779169, 18.7438764
4893, -3.32094145, 0.779425556, 29.4728226
4894, -9.6790485, 0.779542504, 18.7435169
4895, -11.4935487, -5.11815993, 15.6815478
4896, -1.50645129, 1.11815993, 32.5347747
4897, -11.4935487, 1.11815993, 15.6815478
4898, -1.50645129, -5.11815993, 32.5347747
4899, -6.49989136, -1.99999361, 24.1083446
4900, -4.35291495, -2, 27.7313673
4901, -8.65765, -1.99963764, 20.4671269
4902, 43.7117957, 10.5, 4.19067015
4903, 37.8615965, 10.5, 1.72767708
4904, 38.6662456, 10.5, 4.36812598
4905, 35.9812493, 10.5, 3.50953884
4906, 47.4544841, 10.5, 4.19056095
4907, 42.1926287, 10.5, 1.819339
4908, 28.1209828, 10.5, 4.08324726
4909, 32.293025, 10.5, 3.45189114
4910, 51.1624686, 10.5, 3.73624617
4911, 25.0322191, 10.5, 3.04905341
4912, 41.06469, 10.5, 3.80267947
4913, 24.523409, 10.5, 5.70737762
4914, 56.5, 9, 5.79175344
4915, 56.5, 9, 2.19740491
4916, 56.5, 5, 5.79175344
4917, 56.5, 5, 2.19740491
4918, 27.7083333, 3.5, 3.92708333
4919, 32.5, 3.5, 4
4920, 37.5, 3.5, 4
4921, 42.5, 3.5, 4
4922, 47.2916667, 3.5, 4.07291667
4923, 51.25, 3.5, 4.4375
4924, 23.75, 3.5, 3.5625
4925, 17.5, -6.5, 8
4926, 16.75, -4.25, 8
4927, 14.6875, -3.6875, 8
4928, 15.0742188, -5.92578125, 8
4929, 13, -0.726906782, 10.4083562
4930, 13, -3.49953736, 10.2614265
4931, 13, 2.04551554, 10.5428141
4932, 13, -5.76420675, 10.1438538
4933, 14.4166667, -2, 6.21051172
4934, 17.5694444, -2, 6.2370232
4935, 16, -2, 3.2116275
4936, 20, -0.075, 6
4937, 20, 1.575, 2
4938, 20, -0.185, 2
4939, 20, 1.685, 6
4940, 20, 0.75, 4
4941, 10.9831004, -2, 16.5429294
4942, 2.01689961, -2, 31.6733932
4943, 5.41666667, -4.31938098, 25.9362863
4944, 7.58333333, 0.319380979, 22.2800363
4945, 5.41666667, 0.319380979, 25.9362863
4946, 7.58333333, -4.31938098, 22.2800363
4947, 9.67905855, 0.779425556, 18.7435
4948, 9.67905855, -4.77942556, 18.7435
4949, 3.32094145, 0.779425556, 29.4728226
4950, 3.32094145, -4.77942556, 29.4728226
4951, 1.50645129, 1.11815993, 32.5347747
4952, 11.4935487, -5.11815993, 15.6815478
4953, 1.50645129, -5.11815993, 32.5347747
4954, 11.4935487, 1.11815993, 15.6815478
4955, 6.5, -2, 24.1081613
4956, 8.65252436, -2, 20.4757764
4957, 4.34529992, -2, 27.7442177
4958, 12, 1.575, 5.91640625
4959, 12, -0.185, 5.8996875
4960, 12, 0.731666667, 3.8996875
4961, 12, -0.0786666667, 1.93814062
4962, 12, 1.6806, 1.96756562
4963, 4.6, 3.5, 4.09333333
4964, -2.84217094e-14, 3.5, 4
4965, -4.6, 3.5, 3.90666667
4966, 8.4, 3.5, 4.56
4967, -8.4, 3.5, 3.44
4968, -12, -0.075, 6
4969, -12, 1.575, 2
4970, -12, -0.185, 2
4971, -12, 1.685, 6
4972, -12, 0.75, 4
4973, 44.7448624, 13.3419087, 3.49883604
4974, 37.133366, 11.5213853, 7.30781088
4975, 35.2920593, 18.6000469, 5.39967815
4976, 43.8722555, 12.3210079, 6.55955465
4977, 42.9981848, 11.460824, 3.45820817
4978, 41.698184, 10.9232495, 6.18374966
4979, 34.8100112, 14.8671782, 7.47430612
4980, 38.0660044, 10.8496591, 1.52472056
4981, 38.6924626, 10.7160325, 3.35212586
4982, 36.5182574, 11.8238931, 3.54729149
4983, 41.790626, 10.7957945, 1.45690513
4984, 34.5954777, 15.3860022, 3.47951689
4985, 40.9116341, 10.633576, 3.35323143
4986, 39.209171, 10.6956675, 5.87836015
4987, 35.5221869, 18.8045632, 8.37270334
4988, 44.7588535, 13.7570554, 9.08475104
4989, 35.918827, 19.6788994, 1.74215845
4990, 40.1192153, 10.7159478, 8.31609939
4991, 42.3629253, 11.2871338, 8.73553462
4992, 35.5013416, 13.066211, 5.63331058
4993, 22, 12.625, 5.79175344
4994, 22, 12.625, 2.19740491
4995, -35.2551376, 13.3419087, 3.49883604
4996, -42.866634, 11.5213853, 7.30781088
4997, -44.7079407, 18.6000469, 5.39967815
4998, -36.1277445, 12.3210079, 6.55955465
4999, -37.0018152, 11.460824, 3.45820817
5000, -38.301816, 10.9232495, 6.18374966
5001, -45.1899888, 14.8671782, 7.47430612
5002, -41.9339956, 10.8496591, 1.52472056
5003, -41.3075374, 10.7160325, 3.35212586
5004, -43.4817426, 11.8238931, 3.54729149
5005, -38.209374, 10.7957945, 1.45690513
5006, -45.4045223, 15.3860022, 3.47951689
5007, -39.0883659, 10.633576, 3.35323143
5008, -40.790829, 10.6956675, 5.87836015
5009, -44.4778131, 18.8045632, 8.37270334
5010, -35.2411465, 13.7570554, 9.08475104
5011, -44.081173, 19.6788994, 1.74215845
5012, -39.8807847, 10.7159478, 8.31609939
5013, -37.6370747, 11.2871338, 8.73553462
5014, -44.4986584, 13.066211, 5.63331058
5015, -22, 12.625, 2.20824656
5016, -22, 12.625, 5.80259509
5017, 4.5296686, 18.8977109, 5.42984472
5018, 4.24203142, 19.1583353, 8.21357927
5019, 4.50169423, 19.1019619, 2.61049853
5020, 4.94708981, 17.7313765, 9.70159041
5021, -2.1775, 19.5155026, 9.16666932
5022, -2.1775, 19.5795248, 5.50000513
5023, -2.1775, 19.6386323, 1.83333511
5024, 0.793394378, 12.3497447, 11
5025, 3.72679223, 17.2698703, 11
5026, 15.3488904, 22.6960713, 5.46785616
5027, 24.6700781, 17.498719, 7.9282096
5028, 16.2552152, 16.180242, 6.31078952
5029, 23.7613395, 16.0449794, 2.89114281
5030, 23.232492, 15.7355974, 6.25154537
5031, 14.7457043, 19.2805747, 7.75281954
5032, 14.5755011, 19.5911629, 3.46079449
5033, 17.4864077, 15.3847809, 9.26135637
5034, 24.803844, 17.5403646, 4.81115143
5035, 15.9697486, 16.3221916, 2.95064265
5036, 22.4528626, 15.3283972, 8.59882621
5037, 15.6597175, 23.00726, 8.4759992
5038, 15.6621761, 23.3326327, 2.50780156
5039, 25.0010154, 17.7708126, 2.34621732
5040, 20.1985184, 14.7524518, 9.38765491
5041, 44.5296686, 18.8977109, 5.42984472
5042, 44.2420314, 19.1583353, 8.21357927
5043, 44.5016942, 19.1019619, 2.61049853
5044, 44.9470898, 17.7313765, 9.70159041
5045, 37.8225, 19.5155026, 9.16666932
5046, 37.8225, 19.5795248, 5.50000513
5047, 37.8225, 19.6386323, 1.83333511
5048, 40.7933944, 12.3497447, 11
5049, 43.7267922, 17.2698703, 11
5050, -35.4703314, 18.8977109, 5.42984472
5051, -35.7579686, 19.1583353, 8.21357927
5052, -35.4983058, 19.1019619, 2.61049853
5053, -35.0529102, 17.7313765, 9.70159041
5054, -42.1775, 19.5155026, 9.16666932
5055, -42.1775, 19.5795248, 5.50000513
5056, -42.1775, 19.6386323, 1.83333511
5057, -39.2066056, 12.3497447, 11
5058, -36.2732078, 17.2698703, 11
5059, -15.4703314, 22.8977109, 5.42984472
5060, -15.7579686, 23.1583353, 8.21357927
5061, -15.4983058, 23.1019619, 2.61049853
5062, -15.0529102, 21.7313765, 9.70159041
5063, -22.1775, 23.5155026, 9.16666932
5064, -22.1775, 23.5795248, 5.50000513
5065, -22.1775, 23.6386323, 1.83333511
5066, -19.2066056, 16.3497447, 11
5067, -16.2732078, 21.2698703, 11
5068, 2.1775, 19.5155026, 9.16666932
5069, 2.1775, 19.5795248, 5.50000513
5070, 2.1775, 19.6386323, 1.83333511
5071, 24.5296686, 22.8977109, 5.42984472
5072, 24.2420314, 23.1583353, 8.21357927
5073, 24.5016942, 23.1019619, 2.61049853
5074, 24.9470898, 21.7313765, 9.70159041
5075, 17.8225, 23.5155026, 9.16666932
5076, 17.8225, 23.5795248, 5.50000513
5077, 17.8225, 23.6386323, 1.83333511
5078, 20.7933944, 16.3497447, 11
5079, 23.7267922, 21.2698703, 11
5080, 42.1775, 19.5155026, 9.16666932
5081, 42.1775, 19.5795248, 5.50000513
5082, 42.1775, 19.6386323, 1.83333511
5083, -37.8225, 19.5155026, 9.16666932
5084, -37.8225, 19.5795248, 5.50000513
5085, -37.8225, 19.6386323, 1.83333511
5086, -17.8225, 23.5155026, 9.16666932
5087, -17.8225, 23.5795248, 5.50000513
5088, -17.8225, 23.6386323, 1.83333511
5089, 22.1775, 23.5155026, 9.16666932
5090, 22.1775, 23.5795248, 5.50000513
5091, 22.1775, 23.6386323, 1.83333511
5092, -13, -2, 24.4496903
5093, -13, -2, 53.5503097
5094, -13, 0.0997655464, 32.2445958
5095, -13, 0.0997655464, 41.2518014
5096, -13, -4.09976555, 36.7481986
5097, -13, -4.09976555, 45.7554042
5098, -13, -4.81995311, 41.2518014
5099, -13, 0.547221895, 36.7481986
5100, -13, -4.85268632, 32.3001018
5101, -13, 0.852686325, 45.6998982
5102, -13, 0.50152057, 27.3611492
5103, -13, -4.50152057, 50.6388508
5104, -13, 0.263431623, 49.9814769
5105, -13, -4.26343162, 28.0185231
5106, -13, -5.1727895, 54.0278999
5107, -13, 1.1727895, 23.9721001
5108, -13, 1.1727895, 54.0278999
5109, -13, -5.1727895, 23.9721001
5110, -11.0086181, -2, 53.6539544
5111, -4.31617519, -2, 42.3604569
5112, -7.66239665, 0.542020674, 48.0072056
5113, -7.66239665, -4.54202067, 48.0072056
5114, -5.57885024, -4.94132713, 44.4912211
5115, -9.74594307, -4.94132713, 51.5231902
5116, -5.57885024, 0.941327131, 44.4912211
5117, -9.74594307, 0.941327131, 51.5231902
5118, -3.82764847, -5.10594211, 41.5360681
5119, -11.4971448, -5.10594211, 54.4783432
5120, -3.82764847, 1.10594211, 41.5360681
5121, -11.4971448, 1.10594211, 54.4783432
5122, -8.73957801, -2, 49.8249492
5123, -6.58970783, -2, 46.1970433
5124, -4.31617519, -2, 35.6395431
5125, -11.0086181, -2, 24.3460456
5126, -7.66239665, 0.542020674, 29.9927944
5127, -7.66239665, -4.54202067, 29.9927944
5128, -5.57885024, -4.94132713, 33.5087789
5129, -9.74594307, 0.941327131, 26.4768098
5130, -5.57885024, 0.941327131, 33.5087789
5131, -9.74594307, -4.94132713, 26.4768098
5132, -3.82764847, -5.10594211, 36.4639319
5133, -11.4971448, 1.10594211, 23.5216568
5134, -11.4971448, -5.10594211, 23.5216568
5135, -3.82764847, 1.10594211, 36.4639319
5136, -6.60515383, -2, 31.7768916
5137, -8.72201996, -2, 28.20468
5138, 13, -2, 24.4496903
5139, 13, -2, 53.5503097
5140, 13, 0.0997655464, 32.2445958
5141, 13, 0.0997655464, 41.2518014
5142, 13, -4.09976555, 36.7481986
5143, 13, -4.09976555, 45.7554042
5144, 13, -4.81995311, 41.2518014
5145, 13, 0.547221895, 36.7481986
5146, 13, -4.85268632, 32.3001018
5147, 13, 0.852686325, 45.6998982
5148, 13, 0.50152057, 27.3611492
5149, 13, -4.50152057, 50.6388508
5150, 13, 0.263431623, 49.9814769
5151, 13, -4.26343162, 28.0185231
5152, 13, -5.1727895, 54.0278999
5153, 13, 1.1727895, 23.9721001
5154, 13, 1.1727895, 54.0278999
5155, 13, -5.1727895, 23.9721001
5156, 4.31617519, -2, 42.3604569
5157, 11.0086181, -2, 53.6539544
5158, 7.66239665, -4.54202067, 48.0072056
5159, 7.66239665, 0.542020674, 48.0072056
5160, 5.57885024, -4.94132713, 44.4912211
5161, 9.74594307, -4.94132713, 51.5231902
5162, 9.74594307, 0.941327131, 51.5231902
5163, 5.57885024, 0.941327131, 44.4912211
5164, 3.82764847, -5.10594211, 41.5360681
5165, 11.4971448, -5.10594211, 54.4783432
5166, 3.82764847, 1.10594211, 41.5360681
5167, 11.4971448, 1.10594211, 54.4783432
5168, 6.59841784, -2, 46.2117414
5169, 8.71904282, -2, 49.7902961
5170, 11.0086181, -2, 24.3460456
5171, 4.31617519, -2, 35.6395431
5172, 7.66239665, 0.542020674, 29.9927944
5173, 7.66239665, -4.54202067, 29.9927944
5174, 5.57885024, -4.94132713, 33.5087789
5175, 9.74594307, 0.941327131, 26.4768098
5176, 5.57885024, 0.941327131, 33.5087789
5177, 9.74594307, -4.94132713, 26.4768098
5178, 11.4971448, 1.10594211, 23.5216568
5179, 3.82764847, -5.10594211, 36.4639319
5180, 3.82764847, 1.10594211, 36.4639319
5181, 11.4971448, -5.10594211, 23.5216568
5182, 6.59841784, -2, 31.7882586
5183, 8.73023931, -2, 28.1908099
5184, -10.3871275, 1.77279582, 152.366906
5185, 10.3871275, 1.77279582, 152.366906
5186, 10.3871275, -6.47047024, 179.633094
5187, -10.3871275, -6.47047024, 179.633094
5188, 13, -3.83647579, 70.22265
5189, 13, -3.87091534, 130.310424
5190, 13, -3.74941663, 126.733808
5191, 13, -4.06944784, 82.175
5192, 13, -3.7990261, 85.3704285
5193, 13, -2.1286999, 143.106592
5194, 13, -3.30936018, 138.739693
5195, 13, -0.52343052, 91.7823615
5196, 13, -0.18440099, 101.098564
5197, 13, -0.18440099, 110.762024
5198, 13, -0.425302034, 120.214436
5199, 13, 0.280279443, 76.544465
5200, 13, -3.72501122, 96.3759576
5201, 13, -3.80458804, 106
5202, 13, -3.72024646, 115.608784
5203, 13, -1.00418005, 128.590201
5204, 13, -1.24530433, 132.244571
5205, 13, -1.11894195, 83.4734926
5206, 13, -0.185058037, 124.89403
5207, 13, -0.22949978, 87.0832306
5208, 13, 0.0671427589, 72.2741914
5209, 13, -3.82956102, 88.7749117
5210, 13, -3.78855264, 123.265829
5211, 13, 0.715782589, 140.227766
5212, 13, 0.0910529176, 135.943276
5213, 13, -3.45787553, 74.075
5214, 13, 1.16137241, 143.719901
5215, 13, -0.159954468, 68.3284816
5216, 13, -3.3387489, 78.2387141
5217, 13, -4.7418471, 110.81194
5218, 13, -4.74280005, 101.157127
5219, 13, 0.734010103, 115.554551
5220, 13, 0.765321995, 105.944235
5221, 13, 0.713431453, 96.3581104
5222, 13, -6.04759385, 125.711039
5223, 13, -6.06571742, 86.3179569
5224, 13, -4.7221691, 141.975
5225, 13, -4.61200194, 92.2302104
5226, 13, -4.60044274, 119.766651
5227, 13, -3.62024385, 134.290837
5228, 13, 0.61455052, 80.3878194
5229, 13, -2.93928605, 67.2544618
5230, 13, 1.45884348, 130.401724
5231, 13, -4.41860691, 144.079243
5232, -13, -3.83647579, 70.22265
5233, -13, -3.87091534, 130.310424
5234, -13, -3.74941663, 126.733808
5235, -13, -4.06944784, 82.175
5236, -13, -3.7990261, 85.3704285
5237, -13, -2.1286999, 143.106592
5238, -13, -3.30936018, 138.739693
5239, -13, -0.52343052, 91.7823615
5240, -13, -0.18440099, 101.098564
5241, -13, -0.18440099, 110.762024
5242, -13, -0.425302034, 120.214436
5243, -13, 0.280279443, 76.544465
5244, -13, -3.72501122, 96.3759576
5245, -13, -3.80458804, 106
5246, -13, -3.72024646, 115.608784
5247, -13, -1.00418005, 128.590201
5248, -13, -1.24530433, 132.244571
5249, -13, -1.11894195, 83.4734926
5250, -13, -0.185058037, 124.89403
5251, -13, -0.22949978, 87.0832306
5252, -13, 0.0671427589, 72.2741914
5253, -13, -3.82956102, 88.7749117
5254, -13, -3.78855264, 123.265829
5255, -13, 0.715782589, 140.227766
5256, -13, 0.0910529176, 135.943276
5257, -13, -3.45787553, 74.075
5258, -13, 1.16137241, 143.719901
5259, -13, -0.159954468, 68.3284816
5260, -13, -3.3387489, 78.2387141
5261, -13, -4.7418471, 110.81194
5262, -13, -4.74280005, 101.157127
5263, -13, 0.734010103, 115.554551
5264, -13, 0.765321995, 105.944235
5265, -13, 0.713431453, 96.3581104
5266, -13, -6.04759385, 125.711039
5267, -13, -6.06571742, 86.3179569
5268, -13, -4.7221691, 141.975
5269, -13, -4.61200194, 92.2302104
5270, -13, -4.60044274, 119.766651
5271, -13, -3.62024385, 134.290837
5272, -13, 0.61455052, 80.3878194
5273, -13, -2.93928605, 67.2544618
5274, -13, 1.45884348, 130.401724
5275, -13, -4.41860691, 144.079243
5276, -19, -2.01406406, 144.231818
5277, -19, -3.44794924, 138.21555
5278, -19, -0.331217912, 70.1406953
5279, -19, -4.34675926, 15.2583802
5280, -19, -3.74851665, 25.0076645
5281, -19, -4.13966915, 34.0430403
5282, -19, -4.13569131, 43.8141026
5283, -19, -4.13048952, 53.5851648
5284, -19, -4.05614509, 63.4401985
5285, -19, -0.369469952, 10.3543815
5286, -19, -3.45240474, 73.5
5287, -19, 0.0726813413, 129.84015
5288, -19, -0.29919754, 119.696429
5289, -19, -0.29919754, 109.767857
5290, -19, -0.29919754, 99.8392857
5291, -19, -0.29919754, 89.9107143
5292, -19, -0.13634758, 79.9748233
5293, -19, -0.29919754, 20.4107143
5294, -19, -0.493171409, 30.0307914
5295, -19, 0.0468139143, 40.7309219
5296, -19, 0.0432692574, 50.5938645
5297, -19, -0.00163563094, 60.5758571
5298, -19, 0.304217228, 135.031124
5299, -19, -0.169213715, 84.946111
5300, -19, -0.29919754, 94.875
5301, -19, -0.29919754, 104.803571
5302, -19, -0.29919754, 114.732143
5303, -19, 0.132535571, 124.911722
5304, -19, -3.94205558, 67.8192716
5305, -19, -5.55733112, 144.687284
5306, -19, -0.0209189268, 65.4621035
5307, -19, 1.552623, 144.685477
5308, -19, -3.36200182, 10.73562
5309, -19, -4.06586667, 142.016137
5310, -19, 0.123467538, 140.576957
5311, -19, 0.289208772, 14.0276265
5312, -19, -6.46463956, 142.740684
5313, -19, -3.96262421, 58.4218609
5314, -19, -0.00858001673, 55.5830293
5315, -19, 0.398678899, 75.0710263
5316, -19, -3.96333061, 48.6016484
5317, -19, -0.00148979077, 45.7008038
5318, -19, -3.96039488, 38.8152727
5319, -19, 0.181867293, 35.5081412
5320, -19, -4.87627144, 29.7393762
5321, -19, 0.691822881, 25.239834
5322, -19, -4.87889469, 20.1815057
5323, -19, -3.82158089, 70.6201989
5324, -19, -3.23688026, 77.8101459
5325, -19, -3.30549421, 82.7468973
5326, -19, -3.3298065, 87.7172799
5327, -19, -3.3450128, 92.6908326
5328, -19, -3.38708137, 133.086763
5329, -19, -3.34374146, 97.664725
5330, -19, -3.34058914, 102.638658
5331, -19, -3.33729356, 107.612595
5332, -19, -3.33406158, 112.586533
5333, -19, -3.33091783, 117.560472
5334, -19, -3.45816956, 122.93373
5335, -19, -3.34000567, 127.962061
5336, -19, 1.96050268, 10.6327369
5337, -19, -6.19442582, 10.6319114
5338, 19, -2.01406406, 144.231818
5339, 19, -3.44794924, 138.21555
5340, 19, -0.331217912, 70.1406953
5341, 19, -4.34675926, 15.2583802
5342, 19, -3.74851665, 25.0076645
5343, 19, -4.13966915, 34.0430403
5344, 19, -4.13569131, 43.8141026
5345, 19, -4.13048952, 53.5851648
5346, 19, -4.05614509, 63.4401985
5347, 19, -0.369469952, 10.3543815
5348, 19, -3.45240474, 73.5
5349, 19, 0.0726813413, 129.84015
5350, 19, -0.29919754, 119.696429
5351, 19, -0.29919754, 109.767857
5352, 19, -0.29919754, 99.8392857
5353, 19, -0.29919754, 89.9107143
5354, 19, -0.13634758, 79.9748233
5355, 19, -0.29919754, 20.4107143
5356, 19, -0.493171409, 30.0307914
5357, 19, 0.0468139143, 40.7309219
5358, 19, 0.0432692574, 50.5938645
5359, 19, -0.00163563094, 60.5758571
5360, 19, 0.304217228, 135.031124
5361, 19, -0.169213715, 84.946111
5362, 19, -0.29919754, 94.875
5363, 19, -0.29919754, 104.803571
5364, 19, -0.29919754, 114.732143
5365, 19, 0.132535571, 124.911722
5366, 19, -3.94205558, 67.8192716
5367, 19, -5.55733112, 144.687284
5368, 19, -0.0209189268, 65.4621035
5369, 19, 1.552623, 144.685477
5370, 19, -3.36200182, 10.73562
5371, 19, -4.06586667, 142.016137
5372, 19, 0.123467538, 140.576957
5373, 19, 0.289208772, 14.0276265
5374, 19, -6.46463956, 142.740684
5375, 19, -3.96262421, 58.4218609
5376, 19, -0.00858001673, 55.5830293
5377, 19, 0.398678899, 75.0710263
5378, 19, -3.96333061, 48.6016484
5379, 19, -0.00148979077, 45.7008038
5380, 19, -3.96039488, 38.8152727
5381, 19, 0.181867293, 35.5081412
5382, 19, -4.87627144, 29.7393762
5383, 19, 0.691822881, 25.239834
5384, 19, -4.87889469, 20.1815057
5385, 19, -3.82158089, 70.6201989
5386, 19, -3.23688026, 77.8101459
5387, 19, -3.30549421, 82.7468973
5388, 19, -3.3298065, 87.7172799
5389, 19, -3.3450128, 92.6908326
5390, 19, -3.38708137, 133.086763
5391, 19, -3.34374146, 97.664725
5392, 19, -3.34058914, 102.638658
5393, 19, -3.33729356, 107.612595
5394, 19, -3.33406158, 112.586533
5395, 19, -3.33091783, 117.560472
5396, 19, -3.45816956, 122.93373
5397, 19, -3.34000567, 127.962061
5398, 19, 1.96050268, 10.6327369
5399, 19, -6.19442582, 10.6319114
5400, -14.4943752, -8.52306426, 146.730136
5401, 14.4943752, -8.52306426, 146.730136
5402, -11.5143582, -9.9974809, 151.607052
5403, 11.5143582, -9.9974809, 151.607052
5404, 14.5280625, -19.8390934, 184.160078
5405, -14.5280625, -19.8390934, 184.160078
5406, 11.5841875, -18.7265825, 180.480234
5407, -11.5841875, -18.7265825, 180.480234
5408, -8.5904344, -11.1024521, 155.261957
5409, 8.5904344, -11.1024521, 155.261957
5410, 8.64031242, -17.6140716, 176.800391
5411, -8.64031242, -17.6140716, 176.800391
5412, 17.2019023, 4, 144.196625
5413, -17.2019023, 4, 144.196625
5414, 15.1517455, 4, 16.1617053
5415, -15.1517455, 4, 16.1617053
5416, -15.0084992, 4, 60.6934149
5417, 15.0084992, 4, 60.6934149
5418, -15.6645351, 4, 11.1599944
5419, 15.6645351, 4, 11.1599944
5420, -15.9589506, 4, 139.538833
5421, -15.9171405, 4, 142.470198
5422, 15.9589506, 4, 139.538833
5423, 15.9171405, 4, 142.470198
5424, 16.3376213, 4, 145.551738
5425, 15.3998179, 4, 144.293439
5426, 14.6187454, 4, 143.711564
5427, -16.3387438, 4, 145.548377
5428, -15.3999782, 4, 144.292959
5429, -14.6187775, 4, 143.711468
5430, -15.9727669, 4, 50.2381476
5431, 15.9727669, 4, 50.2381476
5432, -15.9787907, 4, 54.2300022
5433, 15.9787907, 4, 54.2300022
5434, 14.8652743, 4, 145.910348
5435, -14.8654988, 4, 145.909675
5436, -15.956211, 4, 45.5775072
5437, 15.956211, 4, 45.5775072
5438, 15.9686684, 4, 134.774616
5439, -15.9686684, 4, 134.774616
5440, 15.9631009, 4, 129.909953
5441, -15.9631009, 4, 129.909953
5442, -15.9372272, 4, 40.8941705
5443, 15.9372272, 4, 40.8941705
5444, 15.9554739, 4, 125.028549
5445, -15.9554739, 4, 125.028549
5446, -16.3478173, 4, 20.2412225
5447, 16.3478173, 4, 20.2412225
5448, 15.9479917, 4, 120.144355
5449, -15.9479917, 4, 120.144355
5450, 15.9877318, 4, 24.201166
5451, -15.9877318, 4, 24.201166
5452, -15.9237341, 4, 36.207051
5453, 15.9237341, 4, 36.207051
5454, 15.9410218, 4, 115.259696
5455, -15.9410218, 4, 115.259696
5456, -15.7172559, 4, 67.3231266
5457, 15.7172559, 4, 67.3231266
5458, 15.9346253, 4, 110.374959
5459, -15.9346253, 4, 110.374959
5460, 15.9170513, 4, 31.5193012
5461, -15.9170513, 4, 31.5193012
5462, -15.9288125, 4, 105.490209
5463, 15.9288125, 4, 105.490209
5464, 15.4777485, 4, 27.7771798
5465, -15.4777485, 4, 27.7771798
5466, 15.923585, 4, 100.605457
5467, -15.923585, 4, 100.605457
5468, 15.9189431, 4, 95.720705
5469, -15.9189431, 4, 95.720705
5470, -14.4161338, 4, 9.43242501
5471, 14.4161338, 4, 9.43242501
5472, 15.914887, 4, 90.8359526
5473, -15.914887, 4, 90.8359526
5474, 15.9114166, 4, 85.9512003
5475, -15.9114166, 4, 85.9512003
5476, -15.9085318, 4, 81.066448
5477, 15.9085318, 4, 81.066448
5478, 15.9062328, 4, 76.1816956
5479, -15.9062328, 4, 76.1816956
5480, 15.9372481, 4, 71.3047221
5481, -15.9372481, 4, 71.3047221
5482, 56.0423905, 6.96219365, 8
5483, -55.4482939, 7.06393688, 8
5484, 17.6743107, 6.29306571, 8
5485, 19.8348621, 5.52474243, 8
5486, 14.8444712, 6.57878306, 8
5487, 12.2384753, 6.28084307, 8
5488, -17.5, 5.94855716, 8
5489, -19.6408365, 5.81695468, 8
5490, -14.5, 5.94855716, 8
5491, -12.1410317, 5.77205362, 8
5492, 20, 13.5435556, 8
5493, -20, 13.5435556, 8
5494, -15.913505, 8.19391174, 8
5495, 9.669183, 5.70949971, 8
5496, -9.66261277, 5.64606807, 8
5497, 22.0274293, 5.62913678, 8
5498, -21.9827302, 5.77052918, 8
5499, 6.83245493, 7.32594016, 8
5500, -24.191251, 7.62483378, 8
5501, 52.3761127, 7.00876211, 8
5502, -6.75, 7.53479361, 8
5503, 47.7412569, 7.02964305, 8
5504, -47.7913915, 7.08712989, 8
5505, 42.9449714, 7.04429911, 8
5506, -42.9533272, 7.05388025, 8
5507, -28.5199704, 7.15272983, 8
5508, -2.28, 7.87895872, 8
5509, 2.05704459, 7.31856322, 8
5510, 38.1217809, 7.05597405, 8
5511, -38.1231736, 7.05757091, 8
5512, 23.9691858, 7.62614947, 8
5513, 28.4829595, 7.15294911, 8
5514, 33.1960282, 7.03482053, 8
5515, -33.2024288, 7.03505012, 8
5516, 16.5605469, 8.35494628, 8
5517, -10.7629671, 8.01210774, 8
5518, -18.3940026, 7.74961345, 8
5519, 10.0749848, 7.94071532, 8
5520, -20.7626704, 8.07793761, 8
5521, 20.0067689, 8.057009, 8
5522, -13.4094029, 7.80944179, 8
5523, -51.9648723, 7.10932253, 8
5524, 11.6844888, -11.3888159, 68
5525, -11.3226335, -11.3733116, 68
5526, 10.7233068, -8.15622864, 68
5527, -10.3630208, -8.225, 68
5528, 9.86020461, -11.3539918, 68
5529, -9.60428725, -11.4198459, 68
5530, 14.3699677, -9.59128948, 68
5531, -14.5, -9.3, 68
5532, -10.3861446, -9.89665334, 68
5533, -12.1104211, -9.57745128, 68
5534, -13.1438265, -10.7619278, 68
5535, 14.03, -11.3576923, 68
5536, 12.8601982, -9.99378818, 68
5537, 11.0546997, -9.77380409, 68
5538, -14.6214539, -11.7222979, 68
5539, -11.7719173, -8.47982092, 68
5540, -13.2212515, -9.31725338, 68
5541, -14.8296116, 2.27232034, 0
5542, 17.6318996, 2.03335484, 0
5543, 17.5507719, 4.9921875, 0
5544, -14.4494632, 4.99356276, 0
5545, 0.0519520286, 8.68999227, 0
5546, -56.0423905, 6.96219365, 0
5547, 56.0423905, 6.96219365, 0
5548, -40, 8.53706545, 0
5549, 40.2421712, 8.51465629, 0
5550, -12.2585306, 7.41801142, 0
5551, 19.6119023, 7.42611316, 0
5552, 14.6924475, 2.26939959, 0
5553, -17.7206508, 1.92397324, 0
5554, 11.6390554, 7.2761517, 0
5555, -22.3415586, 6.44090826, 0
5556, -19.1007692, 7.02583114, 0
5557, 14.4126791, 5.1827728, 0
5558, 23.5662229, 7.09859008, 0
5559, -43.3729378, 7.71455324, 0
5560, 2.69919761, 8.46542208, 0
5561, -15.8723686, 7.51708227, 0
5562, -37.0996095, 8.56097648, 0
5563, 43.3073835, 8.07080049, 0
5564, -32.6902902, 7.28773397, 0
5565, 32.5932095, 7.04660557, 0
5566, 37.6584159, 7.07736019, 0
5567, -2.11619752, 8.24311471, 0
5568, 16.1811206, 7.87612519, 0
5569, -52.3603017, 7.00698539, 0
5570, 52.3603017, 7.00698539, 0
5571, -19.9960609, 12.7787586, 0
5572, 20.0039391, 12.7787586, 0
5573, -28.4712612, 7.16542731, 0
5574, 28.0169925, 7.02419927, 0
5575, 8.01807028, 7.17846494, 0
5576, -8.45330308, 6.91426738, 0
5577, 47.7351648, 7.17963098, 0
5578, -47.7460905, 7.12025644, 0
5579, -19.7629873, 15.8354339, 0
5580, 20.2370127, 15.8354339, 0
5581, -17.2080902, 4.57487877, 0
5582, -4.51192277, 6.21298516, 0
5583, -19.9267078, 14.4598948, 0
5584, 20.0732922, 14.4598948, 0
5585, -17.9441302, -0.165412039, 0
5586, 14.1384895, -0.0963267679, 0
5587, 17.9263799, -0.143535719, 0
5588, -14.1659223, -0.0957426192, 0
5589, 9.71428142, 5.36365416, 0
5590, 17.209138, 17.2343286, 0
5591, -22.790862, 17.2343286, 0
5592, 4.64008374, 5.97938158, 0
5593, 43.6536248, 14.429754, 0
5594, 3.65362477, 14.429754, 0
5595, -36.3463752, 14.429754, 0
5596, -16.0673791, 0.441854943, 0
5597, 16.039716, 0.454890966, 0
5598, 0.0556204873, 5.92336574, 0
5599, -38.6453491, 6.05371545, 0
5600, -41.1271361, 6.1705353, 0
5601, 41.2415941, 6.13256339, 0
5602, -25.1153319, 7.58874797, 0
5603, 0.282701115, 12.8627113, 8.44226317
5604, 0.226805305, 12.8581758, 2.53882966
5605, -3.0986477, 15.4335352, 5.40008693
5606, 3.14887237, 15.9157219, 5.6194766
5607, 2.74539884, 14.4555631, 8.65735976
5608, 2.71454407, 14.4019542, 2.39807658
5609, -2.36720516, 13.9218182, 8.40163885
5610, -2.34152543, 13.8929265, 2.49891246
5611, -1.39746369, 13.1769528, 5.36992208
5612, 1.66085457, 13.3234234, 5.65882062
5613, 3.02758595, 16.869611, 9.03098356
5614, 3.02863195, 16.865961, 1.98761139
5615, -3.1396261, 16.2554368, 2.33315104
5616, -3.13769438, 16.2781618, 8.63556588
5617, 40.2827011, 12.8627113, 8.44226317
5618, 40.2268053, 12.8581758, 2.53882966
5619, 36.9013523, 15.4335352, 5.40008693
5620, 43.1488724, 15.9157219, 5.6194766
5621, 42.7453988, 14.4555631, 8.65735976
5622, 42.7145441, 14.4019542, 2.39807658
5623, 37.6327948, 13.9218182, 8.40163885
5624, 37.6584746, 13.8929265, 2.49891246
5625, 38.6025363, 13.1769528, 5.36992208
5626, 41.6608546, 13.3234234, 5.65882062
5627, 43.027586, 16.869611, 9.03098356
5628, 43.0286319, 16.865961, 1.98761139
5629, 36.8603739, 16.2554368, 2.33315104
5630, 36.8623056, 16.2781618, 8.63556588
5631, -39.7172989, 12.8627113, 8.44226317
5632, -39.7731947, 12.8581758, 2.53882966
5633, -43.0986477, 15.4335352, 5.40008693
5634, -36.8511276, 15.9157219, 5.6194766
5635, -37.2546012, 14.4555631, 8.65735976
5636, -37.2854559, 14.4019542, 2.39807658
5637, -42.3672052, 13.9218182, 8.40163885
5638, -42.3415254, 13.8929265, 2.49891246
5639, -41.3974637, 13.1769528, 5.36992208
5640, -38.3391454, 13.3234234, 5.65882062
5641, -36.972414, 16.869611, 9.03098356
5642, -36.9713681, 16.865961, 1.98761139
5643, -43.1396261, 16.2554368, 2.33315104
5644, -43.1376944, 16.2781618, 8.63556588
5645, -19.7172989, 16.8627113, 8.44226317
5646, -19.7731947, 16.8581758, 2.53882966
5647, -23.0986477, 19.4335352, 5.40008693
5648, -16.8511276, 19.9157219, 5.6194766
5649, -17.2546012, 18.4555631, 8.65735976
5650, -17.2854559, 18.4019542, 2.39807658
5651, -22.3672052, 17.9218182, 8.40163885
5652, -22.3415254, 17.8929265, 2.49891246
5653, -21.3974637, 17.1769528, 5.36992208
5654, -18.3391454, 17.3234234, 5.65882062
5655, -16.972414, 20.869611, 9.03098356
5656, -16.9713681, 20.865961, 1.98761139
5657, -23.1396261, 20.2554368, 2.33315104
5658, -23.1376944, 20.2781618, 8.63556588
5659, 20.2827011, 16.8627113, 8.44226317
5660, 20.2268053, 16.8581758, 2.53882966
5661, 16.9013523, 19.4335352, 5.40008693
5662, 23.1488724, 19.9157219, 5.6194766
5663, 22.7453988, 18.4555631, 8.65735976
5664, 22.7145441, 18.4019542, 2.39807658
5665, 17.6327948, 17.9218182, 8.40163885
5666, 17.6584746, 17.8929265, 2.49891246
5667, 18.6025363, 17.1769528, 5.36992208
5668, 21.6608546, 17.3234234, 5.65882062
5669, 23.027586, 20.869611, 9.03098356
5670, 23.0286319, 20.865961, 1.98761139
5671, 16.8603739, 20.2554368, 2.33315104
5672, 16.8623056, 20.2781618, 8.63556588
5673, -19, -20.1634566, 189.111269
5674, 19, -20.1634566, 189.111269
5675, 19, -9.10287677, 188.770395
5676, -17.3569678, -20.8097891, 188.106209
5677, 21.5979797, 1.64178584, 202.27325
5678, -33.4496655, 15.4157233, 215.851548
5679, -23.9831567, 1.43326697, 203.084005
5680, 18.7307819, -9.34019058, 189.009148
5681, -12.7997553, -10.0190759, 71.1070536
5682, -16, 5.55162885, 3.99962684
5683, 15.1880558, -12.6173436, 182.43157
5684, -15.1521511, -13.0700295, 181.86234
5685, -16.3547315, 1.78447336, 3.55397082
5686, -8.43769499e-15, -18.335174, 126.156203
5687, 0.64208363, -18.2183418, 80.221834
5688, 5.7599381, -18.1916863, 82.6428681
5689, -16.9785858, -10.7309187, 191.986928
5690, 15.6927192, 2.09538684, 4.5141074
5691, 3.4361372, -17.9030568, 110.12297
5692, 2.7338676, -18.07733, 96.8
5693, 0.00767375924, -18.5816802, 103.794294
5694, -1.77715698, -18.1756656, 85.5883101
5695, 2.49139725, -18.3288598, 117.080176
5696, -15.5957828, 1.21086717, 145.125242
5697, 15.5959293, 1.21339625, 145.125898
5698, -1.98430119, -18.2091421, 93.2627315
5699, 15.9097569, -14.7645815, 195.471033
5700, 16.9852663, -16.8265003, 191.845211
5701, -5.59284031, -18.3052259, 79.5048325
5702, 15.8333282, -9.55208139, 73.2931381
5703, 3.00123773, -18.5056042, 90.2442923
5704, 16.1622311, -9.3, 130.224687
5705, -7.43061768, -18.0673027, 81.9941692
5706, 7.76748639, -18.210405, 79.4359592
5707, -16.1592003, -9.3, 81.7694539
5708, 4.176487, -18.3270655, 122.422704
5709, 16.7333156, 6.09483996, 3.940043
5710, -19.6761311, 7.20824468, 4.53648314
5711, 13.7750873, -10.3927139, 70.9588224
5712, 14.9206125, -10.5016846, 141.223456
5713, -14.9206125, -10.5016846, 141.223456
5714, 4.13324391, -10.4427778, 160.634001
5715, -4.13324391, -10.4427778, 160.634001
5716, 16.9571768, -11.9571426, 192.224
5717, -5.94990682, -18.2054477, 125.790447
5718, 8.2888664, -18.6928697, 127.660155
5719, -6.35328625, -18.3664833, 106.643312
5720, -2.34791961, -18.6693461, 98.6826348
5721, -12.8679979, 6.73298735, 4.78078073
5722, -15.8480689, 1.15193108, 9.4238779
5723, 15.8480689, 1.15193108, 9.4238779
5724, 0.481274178, 7.30724584, 3.02068205
5725, -16.9946845, -16.003872, 191.859889
5726, -4.29907191, -19.8030736, 135.959668
5727, -0.963519165, -19.2063615, 121.011144
5728, 6.33276945, -18.3543531, 101.137142
5729, -1.93328782, -17.499008, 109.08988
5730, 4.62751012, -19.162412, 127.523805
5731, -6.31198055, -18.6621977, 89.2088891
5732, 2.0106239, -19.6548413, 135.782728
5733, -16.0779674, -9.44698964, 73.1174646
5734, 6.96165861, -18.588399, 114.574777
5735, -6.42579931, -18.5247277, 119.819944
5736, -1.47150029, -19.0342682, 113.938056
5737, -6.78285574, -18.4505565, 112.915163
5738, -16.5442858, -9.3, 129.486048
5739, -11.1685164, -9.95465945, 82.2792306
5740, -16.0375097, -10.124135, 197.278131
5741, -6.9477008, -18.265827, 95.4500617
5742, 16.5589937, -9.3, 82.5423879
5743, -6.65776844, -15.9853357, 75.3725839
5744, 10.8164738, -10.0051421, 82.324784
5745, 15.90625, -3.28125, 10.6438174
5746, 5.84337622, -19.3608544, 136.25
5747, 11.2560787, -9.3, 130.487653
5748, -25.6315559, 15.9687685, 217.723525
5749, 3.89527374, -17.3005289, 77.163866
5750, 16.0375097, -10.1449005, 197.282284
5751, -23.8738788, -17.3731857, 200.209331
5752, -20.6882751, -19.884071, 192.64884
5753, 7.37719619, -18.4865795, 94.0785255
5754, -8.8817842e-15, -19.9258224, 130.320734
5755, 4, -19.711291, 131.932077
5756, -4, -19.6755154, 131.725311
5757, 8.47115804, -16.2459408, 136.881222
5758, -6.57205369, -18.2561232, 101.11215
5759, 7.21353398, -18.5426091, 88.2017882
5760, 21.2722191, -8.26741381, 194.144085
*ELEMENT, TYPE=C3D4, ELSET=SOLID
14702, 4776, 5313, 2312, 4788
14703, 4771, 4759, 5375, 2333
14704, 1834, 5736, 5735, 5737
14705, 4429, 1812, 4412, 5713
14706, 4345, 4328, 1597, 5712
14707, 1867, 4616, 4493, 5749
14708, 4532, 5693, 4542, 5728
14709, 4542, 5693, 5692, 5728
14710, 238, 1493, 1499, 1485
14711, 4788, 2051, 4776, 5284
14712, 5688, 5694, 4711, 5703
14713, 5346, 4771, 2049, 4759
14714, 4516, 4542, 5692, 5728
14715, 4516, 4532, 4542, 5728
14716, 4647, 4585, 4699, 5691
14717, 1121, 153, 141, 1110
14718, 4874, 4871, 2120, 4873
14719, 4874, 4871, 4872, 2120
14720, 4915, 4914, 2152, 4917
14721, 4916, 2152, 4914, 4917
14722, 2832, 816, 970, 2816
14723, 2173, 5485, 5497, 5521
14724, 4466, 1836, 4467, 1766
14725, 4467, 4402, 1767, 4408
14726, 4699, 4590, 4700, 5728
14727, 845, 1051, 1052, 770
14728, 830, 1065, 1066, 785
14729, 2303, 4897, 4885, 5311
14730, 4699, 4671, 5691, 5693
14731, 5373, 2324, 4954, 4941
14732, 1119, 211, 4069, 1414
14733, 5367, 5338, 5231, 1497
14734, 1479, 5305, 5276, 5275
14735, 4522, 5735, 1834, 5736
14736, 230, 1465, 1113, 4081
14737, 5567, 4804, 5582, 5724
14738, 4776, 5313, 4788, 5284
14739, 4615, 4609, 4613, 4537
14740, 83, 906, 909, 3005
14741, 5346, 4771, 4759, 5375
14742, 4938, 4937, 5587, 5690
14743, 4871, 5523, 2120, 4873
14744, 2106, 4885, 4897, 5311
14745, 4941, 4954, 5373, 2185
14746, 1711, 4532, 1710, 5728
14747, 737, 738, 937, 5751
14748, 1767, 4468, 4467, 4408
14749, 281, 4277, 221, 1586
14750, 277, 4267, 1577, 217
14751, 2120, 5569, 4872, 4874
14752, 2152, 4915, 4917, 5570
14753, 4916, 4914, 2152, 5501
14754, 971, 3052, 50, 974
14755, 4536, 5736, 1834, 5737
14756, 4288, 1812, 258, 5713
14757, 4265, 247, 1597, 5712
14758, 1867, 4493, 1705, 5749
14759, 4702, 4711, 5694, 5703
14760, 5692, 5693, 4675, 5728
14761, 5688, 5703, 4711, 5759
14762, 4938, 4940, 4937, 5690
14763, 801, 2817, 2831, 955
14764, 5313, 4729, 2312, 4788
14765, 2333, 5375, 4771, 4730
14766, 2173, 5485, 5521, 5709
14767, 4874, 4873, 2120, 2129
14768, 4917, 4916, 2152, 2166
14769, 1112, 119, 1292, 5689
14770, 969, 815, 2832, 2830
14771, 2173, 5521, 2159, 5709
14772, 1017, 3785, 3167, 3166
14773, 5587, 5542, 5597, 5690
14774, 2159, 5551, 2173, 5709
14775, 4691, 4675, 5693, 5728
14776, 5297, 2312, 2311, 4776
14777, 1911, 350, 1797, 361
14778, 787, 54, 3173, 828
14779, 4530, 5694, 5688, 5703
14780, 4699, 4673, 4671, 5693
14781, 2332, 5359, 4759, 2333
14782, 1843, 1711, 1860, 4585
14783, 2818, 962, 808, 2819
14784, 5549, 4912, 4904, 5601
14785, 5517, 4795, 5496, 5721
14786, 5497, 2159, 2173, 5521
14787, 4776, 2052, 5297, 2051
14788, 1246, 1228, 3466, 3471
14789, 1711, 4585, 4523, 5691
14790, 4609, 4613, 4537, 5687
14791, 4609, 4615, 4519, 4537
14792, 1119, 4198, 1414, 1422
14793, 5297, 5313, 2312, 4776
14794, 864, 1108, 863, 68
14795, 2049, 4759, 2050, 5359
14796, 1037, 1038, 854, 761
14797, 1075, 1076, 825, 790
14798, 1041, 1042, 850, 765
14799, 1079, 1080, 821, 794
14800, 2827, 804, 958, 2825
14801, 5567, 4794, 4804, 5724
14802, 4522, 1834, 4536, 5736
14803, 2823, 959, 805, 2825
14804, 5375, 4759, 5359, 2333
14805, 806, 2823, 2821, 960
14806, 809, 2818, 2820, 963
14807, 966, 812, 2826, 2824
14808, 4873, 5523, 2120, 2129
14809, 1733, 1766, 4466, 4467
14810, 4365, 1637, 1674, 4364
14811, 2819, 961, 807, 2821
14812, 957, 803, 2827, 2829
14813, 4857, 4856, 2103, 5722
14814, 1812, 4429, 1738, 5713
14815, 1653, 4345, 1597, 5712
14816, 4701, 5695, 5708, 5734
14817, 1585, 1479, 5276, 5275
14818, 1576, 5231, 5338, 1497
14819, 4541, 5693, 5691, 5729
14820, 2822, 811, 965, 2824
14821, 4701, 5708, 4583, 5734
14822, 4288, 4412, 1812, 5713
14823, 4265, 1597, 4328, 5712
14824, 2822, 2820, 964, 810
14825, 2828, 2830, 814, 968
14826, 1462, 1585, 1479, 4131
14827, 1576, 1403, 1497, 4191
14828, 780, 835, 3178, 836
14829, 839, 3177, 775, 840
14830, 2826, 813, 967, 2828
14831, 4603, 4590, 4699, 4585
14832, 2120, 5569, 4874, 2129
14833, 211, 1119, 1121, 1414
14834, 1112, 1292, 168, 5689
14835, 2152, 4917, 2166, 5570
14836, 4615, 4609, 4519, 5743
14837, 2166, 4916, 2152, 5501
14838, 4647, 4699, 4697, 5691
14839, 1111, 230, 1465, 1113
14840, 1417, 1576, 1416, 4191
14841, 5587, 4937, 5542, 5690
14842, 802, 2831, 2829, 956
14843, 5297, 4776, 2051, 5284
14844, 4701, 5695, 4660, 5708
14845, 4518, 1828, 4630, 5731
14846, 1715, 4364, 4365, 1674
14847, 5313, 4729, 4788, 5284
14848, 5346, 4771, 5375, 4730
14849, 5691, 5693, 4671, 5729
14850, 4759, 2049, 5346, 5359
14851, 5405, 256, 1466, 1465
14852, 244, 1414, 5404, 1413
14853, 373, 4721, 1962, 5717
14854, 4647, 5691, 4697, 5734
14855, 4852, 2103, 5285, 5722
14856, 4262, 4352, 4259, 4303
14857, 4454, 4290, 4386, 4293
14858, 918, 3008, 3018, 3307
14859, 4776, 5297, 5313, 5284
14860, 4142, 1465, 1449, 1113
14861, 4787, 5297, 2311, 4776
14862, 5414, 5373, 2324, 4954
14863, 2303, 4897, 5311, 5415
14864, 5359, 5346, 4759, 5375
14865, 4630, 4657, 5705, 5731
14866, 4495, 4616, 4493, 1867
14867, 5359, 4759, 4769, 2332
14868, 4619, 4631, 1960, 5726
14869, 4965, 5582, 4804, 5724
14870, 4433, 1795, 1767, 4467
14871, 4609, 5687, 4537, 5701
14872, 4519, 4609, 4537, 5701
14873, 5297, 4787, 2052, 4776
14874, 5404, 1414, 212, 1422
14875, 1449, 229, 5405, 1465
14876, 1465, 1449, 229, 4142
14877, 3785, 3167, 92, 931
14878, 4769, 2050, 4759, 5359
14879, 4131, 1585, 1437, 4281
14880, 1576, 1417, 4271, 4191
14881, 4647, 4603, 4699, 4585
14882, 4523, 4585, 1712, 5691
14883, 1785, 4421, 4434, 5739
14884, 2159, 5521, 2061, 5709
14885, 4410, 4454, 349, 4453
14886, 1373, 3647, 1030, 5689
14887, 1030, 120, 3766, 3712
14888, 1867, 1704, 4616, 5749
14889, 4675, 5693, 5692, 5720
14890, 4352, 4262, 4341, 5712
14891, 4454, 4425, 4293, 5713
14892, 2061, 5551, 2159, 5709
14893, 298, 1655, 4478, 4357
14894, 1749, 328, 4562, 4459
14895, 4700, 4590, 4699, 4603
14896, 4871, 5483, 5523, 4873
14897, 4526, 1962, 4721, 5717
14898, 4350, 4338, 1687, 5744
14899, 4669, 5735, 5736, 5737
14900, 4156, 4155, 1335, 1392
14901, 870, 113, 869, 1010
14902, 4701, 4664, 4660, 5695
14903, 1738, 4429, 4410, 5713
14904, 4345, 1653, 4326, 5712
14905, 4340, 4331, 4346, 5702
14906, 319, 4353, 4327, 5711
14907, 2433, 4971, 2104, 5685
14908, 1712, 1711, 4585, 4523
14909, 4281, 1437, 4131, 1463
14910, 1402, 4271, 1417, 4191
14911, 4702, 4684, 4711, 5703
14912, 4609, 5701, 4519, 5743
14913, 5727, 5735, 4522, 5736
14914, 5601, 4904, 5549, 5566
14915, 1462, 1585, 4131, 5400
14916, 1403, 1576, 5401, 4191
14917, 4701, 4664, 5695, 5734
14918, 3883, 3880, 3879, 3685
14919, 4326, 1652, 316, 5712
14920, 4551, 4527, 5717, 5727
14921, 4530, 4543, 5694, 5703
14922, 4788, 4729, 2051, 5284
14923, 2049, 4771, 5346, 4730
14924, 4971, 2433, 422, 2204
14925, 4691, 4675, 4673, 5693
14926, 2052, 5297, 2051, 5284
14927, 2050, 5346, 2049, 5359
14928, 5400, 4281, 4131, 1463
14929, 4271, 5401, 4191, 1402
14930, 2104, 5685, 4857, 5722
14931, 847, 1050, 846, 768
14932, 1067, 828, 829, 787
14933, 4904, 5549, 4903, 2163
14934, 2433, 5685, 2104, 5722
14935, 1812, 1739, 4413, 5738
14936, 4895, 2302, 4885, 5279
14937, 1076, 1077, 824, 791
14938, 1038, 1039, 853, 762
14939, 1078, 1079, 822, 793
14940, 1040, 1041, 851, 764
14941, 4537, 5687, 4613, 5749
14942, 373, 4526, 4721, 5717
14943, 5341, 4952, 2323, 4941
14944, 1689, 5524, 5537, 5711
14945, 1609, 1641, 4331, 5742
14946, 5367, 5231, 5338, 5371
14947, 5276, 5305, 5309, 5275
14948, 4684, 4711, 5703, 5759
14949, 5529, 5532, 5525, 1783
14950, 5276, 1480, 1479, 1585
14951, 1498, 1576, 5338, 1497
14952, 4551, 5727, 5717, 5735
14953, 5557, 5554, 2199, 5709
14954, 4412, 1812, 4429, 4413
14955, 4328, 4329, 4345, 1597
14956, 4856, 5685, 2403, 5722
14957, 4647, 4585, 5691, 5734
14958, 3875, 3876, 120, 3754
14959, 1689, 5537, 5524, 5528
14960, 732, 110, 2837, 1007
14961, 5276, 5237, 1585, 5275
14962, 1576, 5231, 5193, 5338
14963, 1739, 4433, 1767, 4468
14964, 4849, 4853, 4733, 4855
14965, 4341, 4326, 316, 5712
14966, 4425, 349, 4410, 5713
14967, 3180, 781, 834, 835
14968, 3699, 4019, 3757, 3766
14969, 5686, 5717, 4527, 5727
14970, 5589, 2199, 5554, 4966
14971, 4961, 5586, 4962, 5690
14972, 4638, 4621, 373, 5717
14973, 4853, 4852, 2103, 5308
14974, 1077, 1078, 823, 792
14975, 1039, 1040, 852, 763
14976, 774, 840, 3179, 841
14977, 4426, 1921, 4566, 4568
14978, 3678, 3883, 3884, 3885
14979, 1739, 4433, 4420, 1767
14980, 4651, 5735, 4669, 5737
14981, 3766, 3699, 1030, 3711
14982, 2403, 5685, 2433, 5722
14983, 4793, 4804, 4794, 5724
14984, 4421, 5707, 1748, 5739
14985, 4646, 5718, 5708, 5730
14986, 3692, 3882, 3895, 3898
14987, 4518, 4630, 1827, 5705
14988, 4912, 2163, 5549, 4904
14989, 5692, 5693, 4542, 5720
14990, 4352, 4263, 4262, 4259
14991, 4290, 4454, 4294, 4293
14992, 3712, 1030, 1373, 3647
14993, 4468, 4433, 1767, 4467
14994, 4968, 4971, 4972, 5685
14995, 1414, 4198, 212, 1422
14996, 1748, 4434, 4421, 5739
14997, 4699, 4700, 4691, 5728
14998, 4019, 1030, 120, 3766
14999, 1357, 3740, 201, 1021
15000, 4699, 4700, 4603, 4647
15001, 5484, 5521, 5485, 5709
15002, 4533, 5694, 4543, 5698
15003, 2432, 5690, 459, 5709
15004, 4543, 5698, 5694, 5703
15005, 1828, 1827, 4518, 4630
15006, 4530, 5703, 5688, 5759
15007, 4555, 4537, 4613, 5749
15008, 3712, 3766, 1030, 3711
15009, 4281, 5400, 4131, 1585
15010, 5401, 4271, 4191, 1576
15011, 5551, 2159, 2173, 5558
15012, 4352, 4341, 316, 5712
15013, 4454, 349, 4425, 5713
15014, 5285, 2106, 4852, 5722
15015, 4543, 4545, 5698, 5703
15016, 4453, 1797, 4422, 4468
15017, 4429, 1812, 1738, 4413
15018, 1653, 4345, 4329, 1597
15019, 5414, 5373, 4954, 2185
15020, 5311, 4897, 2106, 5415
15021, 1652, 1597, 247, 5712
15022, 1737, 258, 1812, 5713
15023, 4533, 4543, 4545, 5698
15024, 4328, 4265, 1565, 1597
15025, 4288, 1594, 1812, 4412
15026, 373, 4631, 4638, 5756
15027, 5224, 5231, 248, 5371
15028, 4332, 5524, 1689, 5711
15029, 4646, 4701, 4660, 5708
15030, 972, 3052, 101, 974
15031, 5367, 248, 5231, 5371
15032, 4857, 5685, 4856, 5722
15033, 5695, 5727, 4539, 5736
15034, 1030, 4019, 3699, 3766
15035, 4327, 4340, 4346, 5702
15036, 1565, 4265, 247, 1597
15037, 1594, 1812, 258, 4288
15038, 4350, 1656, 4338, 5744
15039, 422, 2104, 2433, 4971
15040, 3690, 3914, 3909, 3899
15041, 4758, 2049, 5366, 4731
15042, 4732, 4757, 2051, 5304
15043, 120, 3757, 3766, 3712
15044, 4386, 1737, 4454, 4293
15045, 4262, 4352, 4303, 1652
15046, 4885, 2107, 4895, 5279
15047, 1737, 4454, 4293, 5713
15048, 4352, 1652, 4262, 5712
15049, 5341, 4952, 4941, 2186
15050, 940, 737, 95, 2838
15051, 3008, 3393, 3005, 3621
15052, 3678, 3884, 3901, 3886
15053, 1686, 4353, 4354, 4340
15054, 4318, 1673, 4319, 1675
15055, 3901, 3992, 3884, 3684
15056, 1414, 211, 4069, 1413
15057, 1465, 230, 1466, 4081
15058, 1609, 4331, 1608, 5742
15059, 1795, 4401, 1767, 4402
15060, 4422, 4429, 1738, 4413
15061, 4345, 4329, 4339, 1653
15062, 4961, 4962, 4960, 5690
15063, 4619, 1960, 371, 5726
15064, 5486, 5487, 4801, 5709
15065, 4522, 4539, 5727, 5736
15066, 2312, 2311, 5313, 5297
15067, 2332, 5375, 5359, 2333
15068, 3005, 3014, 3009, 3587
15069, 4704, 4668, 4710, 5726
15070, 5416, 5297, 2311, 4787
15071, 4769, 5417, 5359, 2332
15072, 1655, 304, 4478, 4357
15073, 333, 1749, 4562, 4459
15074, 1812, 4413, 1813, 5738
15075, 4805, 5592, 4963, 5724
15076, 120, 1030, 1373, 3712
15077, 5601, 4912, 4904, 4920
15078, 3009, 3008, 3005, 3621
15079, 3785, 3167, 1032, 1017
15080, 4526, 4551, 4527, 5717
15081, 227, 259, 5305, 5275
15082, 5231, 208, 248, 5367
15083, 5293, 2303, 4885, 5311
15084, 4352, 316, 1652, 5712
15085, 2324, 5373, 5355, 4941
15086, 846, 1051, 845, 769
15087, 1066, 829, 830, 786
15088, 4492, 4490, 4491, 5704
15089, 5487, 5495, 5519, 2199
15090, 4198, 1385, 1119, 1414
15091, 5488, 5518, 5494, 5682
15092, 5510, 4904, 4912, 4920
15093, 4859, 2433, 2403, 5685
15094, 5231, 5224, 5193, 5371
15095, 5268, 5237, 5309, 5275
15096, 4939, 4936, 2404, 5690
15097, 4528, 5687, 4538, 5694
15098, 2173, 4924, 2159, 5497
15099, 1737, 4454, 4410, 4453
15100, 1686, 4354, 1687, 4340
15101, 4668, 4619, 4710, 5726
15102, 4587, 5708, 4646, 5718
15103, 4757, 4732, 356, 5304
15104, 4758, 5366, 293, 4731
15105, 5532, 5539, 5533, 5681
15106, 3648, 3722, 118, 1289
15107, 4640, 5735, 4651, 5737
15108, 4356, 4353, 319, 5711
15109, 2120, 4870, 5569, 2129
15110, 4913, 4911, 4908, 4918
15111, 2152, 2166, 4923, 5570
15112, 4971, 2433, 2204, 5685
15113, 4860, 4859, 2403, 5685
15114, 3496, 3018, 3008, 3307
15115, 4184, 4176, 4178, 4177
15116, 4456, 1785, 4423, 1784
15117, 4800, 5487, 2199, 5709
15118, 4526, 4527, 5686, 5717
15119, 4852, 4853, 2107, 5308
15120, 262, 4386, 4290, 4293
15121, 4259, 249, 4262, 4303
15122, 2103, 4849, 4853, 5308
15123, 204, 1289, 1120, 5716
15124, 4339, 1653, 4329, 5704
15125, 4849, 2103, 4850, 5308
15126, 1720, 4415, 4423, 5707
15127, 3978, 3898, 3675, 3908
15128, 4923, 2166, 2152, 5501
15129, 2204, 2433, 422, 5682
15130, 4797, 5592, 4805, 5724
15131, 1708, 5703, 4517, 5759
15132, 1121, 152, 1119, 211
15133, 4723, 5732, 5726, 5756
15134, 3988, 3963, 3693, 3900
15135, 1416, 1577, 1576, 4267
15136, 4277, 1438, 1586, 1585
15137, 5286, 5252, 5232, 5323
15138, 5188, 5348, 5385, 5208
15139, 5687, 5688, 1944, 5749
15140, 4481, 4480, 4343, 4482
15141, 1357, 116, 3681, 1021
15142, 5496, 4795, 4967, 5721
15143, 149, 1111, 1113, 230
15144, 3708, 3982, 3880, 3876
15145, 3712, 1373, 120, 3754
15146, 4669, 5735, 5727, 5736
15147, 5229, 293, 296, 4758
15148, 4638, 373, 4621, 4631
15149, 3900, 3898, 3693, 3978
15150, 2199, 5495, 5519, 4966
15151, 931, 3461, 3464, 5689
15152, 4936, 4939, 4940, 5690
15153, 833, 834, 3182, 782
15154, 773, 842, 841, 3181
15155, 2120, 5523, 4870, 2129
15156, 4876, 4877, 4867, 4884
15157, 711, 579, 12, 2524
15158, 1867, 4495, 4616, 1704
15159, 797, 33, 3054, 817
15160, 758, 36, 800, 3053
15161, 4585, 1712, 5691, 5734
15162, 3786, 1032, 3792, 1017
15163, 5513, 5512, 4913, 4918
15164, 1462, 5400, 4131, 228
15165, 5401, 1403, 4191, 207
15166, 4420, 4422, 1739, 4413
15167, 4340, 1641, 4338, 4331
15168, 3140, 3133, 3206, 3076
15169, 4587, 4600, 5708, 5718
15170, 845, 1052, 844, 770
15171, 1065, 830, 831, 785
15172, 4428, 4454, 349, 4425
15173, 4344, 4341, 316, 4352
15174, 4526, 5686, 1962, 5717
15175, 2404, 5690, 4934, 5723
15176, 5537, 5536, 376, 5711
15177, 3681, 3695, 116, 1357
15178, 4433, 1796, 1739, 4420
15179, 1738, 4429, 4422, 4410
15180, 4345, 4339, 4326, 1653
15181, 1708, 4517, 1707, 5759
15182, 3899, 3675, 3895, 3898
15183, 4797, 5560, 5592, 5724
15184, 1414, 4069, 1119, 1422
15185, 374, 4592, 1961, 5755
15186, 4329, 1653, 1597, 5704
15187, 4295, 1584, 1583, 1591
15188, 4258, 1578, 1559, 1560
15189, 5601, 4912, 4920, 4921
15190, 4800, 2199, 5554, 5709
15191, 2182, 4934, 5690, 5723
15192, 1720, 1824, 4415, 5707
15193, 3757, 4019, 120, 3766
15194, 1113, 1465, 1449, 4081
15195, 4613, 5687, 4612, 5749
15196, 4587, 4600, 4583, 5708
15197, 4592, 5746, 1961, 5755
15198, 4329, 4337, 4339, 5704
15199, 5285, 2103, 4852, 5308
15200, 1373, 169, 3647, 5689
15201, 3757, 3980, 4019, 3699
15202, 1830, 5741, 4529, 5758
15203, 4851, 4849, 4850, 5308
15204, 4413, 4446, 1813, 5738
15205, 4415, 4421, 4423, 5707
15206, 4679, 5698, 5694, 5731
15207, 1709, 5728, 5692, 5753
15208, 5238, 5237, 5309, 5268
15209, 5224, 5194, 5193, 5371
15210, 4708, 5694, 5687, 5701
15211, 3750, 3878, 3963, 3910
15212, 1373, 3875, 3754, 3993
15213, 373, 1960, 4631, 5756
15214, 4420, 4413, 1739, 5738
15215, 4331, 4373, 1608, 5742
15216, 5688, 5706, 1944, 5749
15217, 4865, 4866, 5559, 4875
15218, 1228, 3466, 1229, 928
15219, 168, 1292, 171, 5689
15220, 118, 1120, 1289, 5716
15221, 4338, 4331, 1641, 5742
15222, 1827, 4630, 1900, 5705
15223, 3722, 201, 3740, 1021
15224, 4528, 5687, 5694, 5701
15225, 1112, 119, 5689, 5725
15226, 4680, 5694, 4693, 5731
15227, 5237, 5276, 5309, 5275
15228, 5338, 5231, 5193, 5371
15229, 1872, 4493, 4610, 5706
15230, 3647, 1373, 3712, 3753
15231, 4185, 1416, 1576, 4191
15232, 4517, 5703, 4530, 5759
15233, 4415, 4423, 4430, 1720
15234, 4679, 5694, 5698, 5703
15235, 1829, 5731, 4520, 5741
15236, 5574, 4919, 4908, 4918
15237, 4857, 4968, 4972, 5685
15238, 4912, 5510, 4920, 4921
15239, 4744, 4729, 2312, 5313
15240, 5375, 2333, 4743, 4730
15241, 1677, 4326, 4339, 1653
15242, 3167, 931, 5689, 5725
15243, 3754, 3875, 3876, 3685
15244, 1012, 3149, 3189, 1013
15245, 4936, 4940, 4934, 5690
15246, 5486, 2432, 459, 5709
15247, 4619, 4668, 4631, 5726
15248, 5518, 5494, 5682, 5710
15249, 5511, 5515, 4867, 4884
15250, 1830, 4529, 1831, 5758
15251, 3699, 3710, 1030, 3711
15252, 4651, 4669, 4695, 5737
15253, 1841, 1713, 1862, 5734
15254, 4533, 5694, 5698, 5731
15255, 2323, 4952, 5341, 4727
15256, 4728, 2302, 4895, 5279
15257, 3747, 3706, 1030, 5689
15258, 4519, 4537, 4528, 5701
15259, 4787, 5416, 5297, 2052
15260, 2050, 4769, 5417, 5359
15261, 4530, 4517, 4543, 5703
15262, 2182, 5690, 4933, 5723
15263, 2199, 459, 5690, 5709
15264, 2433, 5490, 422, 5682
15265, 1030, 3706, 119, 5689
15266, 3706, 1030, 3710, 3711
15267, 5193, 1577, 1576, 5697
15268, 3891, 3696, 3890, 3892
15269, 1900, 1827, 1828, 4630
15270, 4875, 5559, 4865, 4878
15271, 5527, 5539, 5532, 5681
15272, 5237, 1585, 1586, 5696
15273, 5334, 5254, 5234, 5266
15274, 5396, 5222, 5190, 5210
15275, 4852, 2106, 5285, 5308
15276, 3880, 3883, 3884, 3684
15277, 818, 797, 3054, 817
15278, 800, 799, 758, 3053
15279, 4467, 4468, 4384, 4408
15280, 5578, 4865, 5559, 4878
15281, 1708, 4531, 4517, 5703
15282, 2173, 5542, 4937, 5690
15283, 3433, 80, 3015, 899
15284, 4545, 4531, 5692, 5703
15285, 4933, 5690, 2183, 5723
15286, 4528, 5694, 4518, 5701
15287, 1642, 5702, 4327, 5711
15288, 4657, 4680, 4693, 5731
15289, 1609, 1608, 1641, 5742
15290, 4529, 5693, 4534, 5758
15291, 5214, 5211, 5423, 5697
15292, 5404, 1414, 4069, 1413
15293, 1466, 5405, 1465, 4081
15294, 5255, 5258, 5421, 5696
15295, 1840, 5538, 5531, 5681
15296, 1463, 1437, 4131, 4143
15297, 1417, 4203, 1402, 4191
15298, 3167, 5689, 931, 5740
15299, 3894, 3659, 3906, 3907
15300, 1828, 4518, 4533, 5731
15301, 4871, 2127, 4874, 4872
15302, 4917, 2164, 4915, 4914
15303, 4916, 2164, 4917, 4914
15304, 2128, 4871, 4874, 4873
15305, 3140, 3247, 3133, 3115
15306, 4539, 5695, 4550, 5727
15307, 1609, 4331, 1642, 5702
15308, 4585, 1861, 1712, 5734
15309, 5564, 4867, 4864, 4879
15310, 1812, 1813, 1739, 5738
15311, 4646, 5708, 4659, 5730
15312, 3722, 201, 1021, 5716
15313, 3880, 3992, 3982, 3684
15314, 1841, 1862, 4583, 5734
15315, 4654, 4631, 4668, 5756
15316, 4128, 4136, 4145, 1438
15317, 3944, 3984, 4003, 3660
15318, 4528, 4538, 4518, 5694
15319, 5193, 1576, 5338, 5697
15320, 5224, 1652, 5194, 5371
15321, 5276, 1585, 5237, 5696
15322, 4905, 5514, 4919, 4920
15323, 4426, 4566, 4567, 4568
15324, 4800, 4801, 5487, 5709
15325, 2433, 5682, 2204, 5685
15326, 2302, 4728, 4737, 5322
15327, 5384, 2323, 4727, 4738
15328, 1301, 93, 3786, 3793
15329, 4411, 4423, 1784, 1720
15330, 5557, 5568, 5554, 5709
15331, 5266, 5234, 5334, 1765
15332, 1665, 5222, 5190, 5396
15333, 4849, 4733, 4853, 5308
15334, 4934, 2404, 4936, 5690
15335, 3683, 3883, 3884, 3678
15336, 5273, 2051, 5304, 5306
15337, 2049, 5366, 5368, 5229
15338, 5525, 1783, 5532, 5681
15339, 4535, 1713, 4513, 5734
15340, 4654, 4638, 4631, 5756
15341, 1709, 4516, 5692, 5728
15342, 3883, 3880, 3683, 3684
15343, 128, 1070, 3173, 1069
15344, 4548, 4524, 1715, 5730
15345, 4511, 4619, 371, 5726
15346, 4723, 5754, 5732, 5756
15347, 4708, 4693, 5694, 5701
15348, 4530, 4543, 4538, 5694
15349, 4271, 1417, 1576, 1416
15350, 1437, 1585, 1438, 4281
15351, 4517, 4530, 1707, 5759
15352, 4679, 5694, 4680, 5731
15353, 1373, 3712, 3753, 3754
15354, 5692, 5698, 4545, 5703
15355, 758, 799, 50, 3052
15356, 5513, 4913, 4908, 4918
15357, 4720, 1963, 4524, 5730
15358, 5323, 5252, 5232, 5278
15359, 5385, 5340, 5188, 5208
15360, 4520, 5731, 5698, 5741
15361, 4866, 4865, 5506, 4875
15362, 4531, 5703, 1708, 5753
15363, 4529, 5720, 5693, 5758
15364, 4620, 4633, 4657, 5705
15365, 4195, 4203, 1417, 4191
15366, 1437, 4136, 4131, 4143
15367, 3880, 3708, 3876, 3685
15368, 4449, 1594, 4448, 4412
15369, 5496, 5517, 5502, 4795
15370, 535, 2436, 5428, 5696
15371, 248, 5367, 5374, 5371
15372, 4856, 4860, 2403, 5685
15373, 4527, 5708, 5686, 5727
15374, 4609, 4612, 4613, 5687
15375, 1829, 4533, 4520, 5731
15376, 530, 5425, 2434, 5697
15377, 1479, 1480, 4127, 1585
15378, 4185, 1576, 1498, 1497
15379, 5505, 4902, 5503, 4922
15380, 879, 74, 45, 2843
15381, 5510, 4912, 5505, 4921
15382, 4869, 5555, 2133, 5710
15383, 4922, 4902, 5563, 4921
15384, 3681, 3740, 1357, 1021
15385, 1720, 4430, 4415, 5733
15386, 4640, 4651, 4695, 5737
15387, 1586, 4127, 1480, 1585
15388, 4185, 1576, 1577, 1498
15389, 4535, 4513, 5695, 5734
15390, 4538, 5687, 4515, 5688
15391, 4911, 4913, 2159, 4924
15392, 1609, 1641, 1642, 4331
15393, 3683, 3883, 3879, 3685
15394, 4919, 5565, 4905, 4920
15395, 1812, 1739, 1738, 4413
15396, 5312, 259, 284, 5268
15397, 5366, 5385, 5340, 5188
15398, 5232, 5304, 5323, 5278
15399, 4160, 1498, 1577, 5697
15400, 1480, 4149, 1586, 5696
15401, 1653, 1597, 1652, 5712
15402, 1812, 1738, 1737, 5713
15403, 3908, 3909, 3665, 3930
15404, 3683, 3884, 3883, 3684
15405, 4449, 1812, 1594, 4412
15406, 5340, 5385, 5348, 5208
15407, 5323, 5286, 5252, 5278
15408, 4795, 5517, 4799, 5721
15409, 1767, 1795, 4402, 4467
15410, 4065, 4204, 1417, 4195
15411, 1437, 4077, 4136, 4144
15412, 4970, 4969, 5588, 5685
15413, 71, 46, 2844, 866
15414, 3913, 3887, 3885, 3677
15415, 4853, 2107, 4733, 4855
15416, 3150, 3151, 1019, 5699
15417, 4131, 1479, 4127, 1585
15418, 1497, 4185, 1576, 4191
15419, 1641, 4338, 1656, 5744
15420, 4518, 5701, 5694, 5705
15421, 1712, 4535, 5691, 5734
15422, 5311, 5293, 2303, 5415
15423, 5414, 5373, 5355, 2324
15424, 1720, 4415, 1824, 5733
15425, 4518, 5694, 4533, 5731
15426, 4972, 4969, 4970, 5685
15427, 4656, 5746, 4592, 5755
15428, 92, 3167, 3785, 3166
15429, 3875, 120, 1373, 3754
15430, 248, 247, 4264, 5712
15431, 259, 4287, 258, 5713
15432, 1586, 1438, 4127, 1585
15433, 1576, 1577, 1416, 4185
15434, 4339, 1676, 4366, 5747
15435, 4537, 5687, 4528, 5701
15436, 5513, 4908, 4919, 4918
15437, 4149, 1439, 4277, 1586
15438, 1431, 4267, 1577, 4160
15439, 5599, 4877, 5600, 4867
15440, 1797, 1796, 4422, 4468
15441, 4366, 1677, 1676, 4339
15442, 1785, 1719, 4421, 5739
15443, 3877, 3761, 116, 3878
15444, 3880, 3883, 3683, 3685
15445, 4656, 5718, 4658, 5755
15446, 1831, 4534, 5719, 5758
15447, 1281, 201, 3740, 3722
15448, 1832, 1831, 4534, 5719
15449, 4865, 5506, 4875, 4878
15450, 4551, 4522, 5727, 5735
15451, 4658, 5718, 4646, 5730
15452, 3647, 1030, 3706, 3711
15453, 3678, 3683, 3883, 3885
15454, 5497, 4924, 2159, 5512
15455, 4356, 1643, 4353, 5711
15456, 4922, 5505, 4902, 4921
15457, 4522, 4539, 4550, 5727
15458, 4131, 5400, 1463, 228
15459, 4191, 5401, 207, 1402
15460, 5726, 5732, 4690, 5756
15461, 4613, 4614, 4617, 5749
15462, 925, 91, 1225, 1241
15463, 1687, 4338, 1641, 5744
15464, 1714, 4552, 4513, 5708
15465, 3903, 3980, 4019, 3757
15466, 2311, 5093, 2312, 5314
15467, 5376, 2332, 5139, 2333
15468, 867, 113, 1098, 5700
15469, 5232, 1721, 5286, 5323
15470, 4609, 4708, 1943, 5687
15471, 3876, 3757, 120, 3754
15472, 4337, 1654, 4339, 5704
15473, 1710, 4532, 4516, 5728
15474, 5506, 4865, 5504, 4878
15475, 2051, 5273, 2052, 5306
15476, 5368, 2049, 5229, 2050
15477, 5518, 5682, 5488, 5710
15478, 730, 3156, 731, 5699
15479, 4421, 1719, 4423, 5707
15480, 3876, 3879, 3880, 3685
15481, 1963, 5686, 4524, 5730
15482, 783, 833, 832, 3184
15483, 3183, 843, 772, 842
15484, 3740, 3695, 3681, 1357
15485, 5561, 5682, 2069, 5710
15486, 4340, 1642, 4331, 5702
15487, 5439, 5287, 5441, 5274
15488, 5440, 5438, 5230, 5349
15489, 5573, 4868, 5602, 4883
15490, 3882, 3881, 3692, 3895
15491, 3157, 3156, 730, 5699
15492, 284, 5309, 5312, 5268
15493, 4326, 1677, 4351, 1653
15494, 5233, 1813, 326, 5738
15495, 1963, 4512, 4524, 5686
15496, 4722, 1962, 4512, 5686
15497, 1962, 5686, 5754, 5756
15498, 5519, 4800, 5487, 2199
15499, 1962, 5717, 5686, 5756
15500, 4550, 5708, 4527, 5727
15501, 374, 5718, 4592, 5755
15502, 4606, 1858, 4589, 5728
15503, 1739, 1796, 4433, 4468
15504, 4866, 4880, 4877, 5600
15505, 5552, 5586, 5597, 5690
15506, 1785, 4423, 4421, 1719
15507, 5566, 5601, 4904, 4920
15508, 3969, 3891, 3919, 3736
15509, 5189, 300, 1598, 5704
15510, 3888, 3886, 3887, 3748
15511, 1796, 4422, 1739, 4420
15512, 2432, 5690, 2404, 5723
15513, 2173, 5543, 5542, 5690
15514, 4531, 1709, 5692, 5753
15515, 4617, 4555, 4613, 4547
15516, 4703, 1944, 5688, 5706
15517, 4529, 5741, 5720, 5758
15518, 5565, 5566, 4905, 4920
15519, 4544, 5692, 4542, 5720
15520, 5516, 5521, 5484, 5709
15521, 4338, 1687, 1641, 4340
15522, 4331, 1609, 1608, 4373
15523, 4423, 1785, 4456, 1719
15524, 1687, 4354, 1641, 4340
15525, 1373, 5689, 1030, 5740
15526, 4555, 4613, 4547, 5749
15527, 1652, 4326, 1653, 5712
15528, 1738, 4410, 1737, 5713
15529, 3878, 3877, 3750, 3881
15530, 4530, 4538, 4515, 5688
15531, 1833, 5719, 4514, 5737
15532, 1119, 1385, 1120, 1022
15533, 5708, 5718, 1715, 5730
15534, 4446, 1813, 1812, 4413
15535, 4620, 4630, 4633, 5705
15536, 4722, 4512, 1963, 5686
15537, 5304, 5232, 5273, 5278
15538, 4924, 4913, 2159, 5512
15539, 4366, 1653, 4339, 5747
15540, 5190, 5189, 300, 5397
15541, 5233, 326, 5335, 5234
15542, 4533, 5698, 4520, 5731
15543, 4866, 4880, 4875, 4877
15544, 5508, 4964, 4965, 5724
15545, 3786, 1301, 1032, 1017
15546, 4658, 4646, 4659, 5730
15547, 4864, 5564, 4879, 4881
15548, 4304, 4356, 5537, 5711
15549, 5581, 4863, 5553, 5685
15550, 3889, 3667, 3974, 3897
15551, 4548, 5718, 374, 5730
15552, 5503, 4902, 4906, 4922
15553, 4867, 5564, 5562, 4879
15554, 4526, 4512, 1962, 5686
15555, 4722, 1963, 1962, 5686
15556, 5694, 5701, 4693, 5705
15557, 4685, 4581, 4709, 5688
15558, 3887, 3913, 3974, 3673
15559, 2230, 2229, 4997, 5055
15560, 2218, 2217, 4975, 5046
15561, 2080, 2081, 5022, 4811
15562, 4329, 4328, 4380, 1597
15563, 2164, 4916, 4917, 2165
15564, 296, 2049, 5229, 4758
15565, 4430, 4423, 4411, 1720
15566, 1120, 1022, 1385, 5716
15567, 4877, 5599, 4876, 4867
15568, 380, 5531, 5540, 5681
15569, 4077, 4128, 4136, 4144
15570, 4204, 4065, 4187, 4195
15571, 4616, 1704, 4547, 5749
15572, 4687, 4656, 4658, 5755
15573, 4267, 1416, 1577, 4160
15574, 4149, 4277, 1438, 1586
15575, 5500, 4868, 5507, 4883
15576, 5514, 4905, 5510, 4920
15577, 1715, 5708, 4600, 5718
15578, 4069, 1414, 5404, 1422
15579, 1465, 5405, 1449, 4081
15580, 4493, 5706, 1705, 5749
15581, 4429, 4412, 4419, 5713
15582, 4345, 4336, 4328, 5712
15583, 3750, 3878, 3882, 3963
15584, 2069, 5682, 5494, 5710
15585, 4963, 4805, 4798, 5592
15586, 4656, 4592, 5718, 5755
15587, 2106, 4852, 2107, 5308
15588, 5537, 4356, 1689, 5711
15589, 4586, 4689, 4653, 5728
15590, 4804, 5582, 4965, 4795
15591, 4493, 4610, 5706, 5749
15592, 1011, 1099, 4027, 1100
15593, 4879, 5515, 4864, 4881
15594, 4547, 4614, 4616, 5749
15595, 3887, 3678, 3885, 3677
15596, 5544, 5561, 5682, 5721
15597, 5587, 5597, 4935, 5690
15598, 4527, 4551, 4522, 5727
15599, 1462, 4131, 1479, 228
15600, 1403, 4191, 207, 1497
15601, 105, 3206, 3140, 3115
15602, 4337, 4339, 1654, 5747
15603, 5188, 5213, 5348, 5208
15604, 5257, 5252, 5232, 5286
15605, 931, 3461, 5689, 5725
15606, 5284, 2052, 5297, 5306
15607, 5368, 5346, 2050, 5359
15608, 4329, 1597, 4368, 5704
15609, 4938, 5587, 4935, 5690
15610, 3668, 3690, 3909, 3899
15611, 4866, 4867, 5600, 4877
15612, 1654, 1653, 4339, 5704
15613, 5564, 4864, 5573, 4881
15614, 1720, 4423, 1719, 5707
15615, 5554, 5568, 4807, 5709
15616, 2113, 5682, 5581, 5710
15617, 4677, 5692, 4683, 5703
15618, 3167, 92, 931, 5725
15619, 4522, 4536, 4539, 5736
15620, 16, 690, 33, 2833
15621, 3899, 3909, 3668, 3675
15622, 5554, 4807, 4800, 5709
15623, 3133, 3206, 3247, 3140
15624, 2199, 5519, 4800, 4966
15625, 4340, 1642, 1641, 4331
15626, 4024, 4167, 4166, 4168
15627, 1796, 1739, 4422, 4468
15628, 4263, 4344, 4367, 4352
15629, 4469, 4294, 4454, 4428
15630, 4962, 5586, 5552, 5690
15631, 4422, 1738, 1739, 4413
15632, 1112, 168, 1232, 5689
15633, 4415, 1824, 4445, 5707
15634, 5192, 297, 1607, 1672
15635, 5236, 323, 1758, 1822
15636, 4589, 5728, 1858, 5753
15637, 277, 4267, 217, 1572
15638, 281, 4277, 1590, 221
15639, 3877, 3762, 3750, 3881
15640, 4934, 4933, 2182, 5690
15641, 5524, 5536, 5537, 5711
15642, 116, 3695, 3761, 1357
15643, 5283, 2312, 5093, 5314
15644, 5139, 5345, 5376, 2333
15645, 5335, 1813, 326, 5233
15646, 5397, 5189, 300, 1598
15647, 4864, 5507, 4868, 4881
15648, 5253, 5236, 5267, 5326
15649, 5209, 5192, 5388, 5223
15650, 4007, 3978, 3900, 3724
15651, 5193, 5211, 5214, 5697
15652, 3909, 3665, 3675, 3908
15653, 5507, 4864, 5515, 4881
15654, 4160, 1416, 1577, 4185
15655, 1438, 4127, 4149, 1586
15656, 4586, 4689, 5728, 5753
15657, 2251, 2252, 5076, 5026
15658, 5064, 2094, 2095, 4833
15659, 3667, 3897, 3902, 3904
15660, 356, 5232, 5304, 5323
15661, 293, 5385, 5366, 5188
15662, 5237, 5258, 5255, 5696
15663, 3648, 118, 3722, 1021
15664, 4567, 4566, 4426, 5738
15665, 4871, 2128, 4874, 2127
15666, 4702, 4650, 4708, 5687
15667, 4504, 5726, 1958, 5732
15668, 4864, 4868, 5573, 4881
15669, 4382, 4330, 4331, 5702
15670, 5387, 297, 1607, 5192
15671, 323, 5236, 5325, 1822
15672, 3981, 3899, 3692, 3895
15673, 3723, 3889, 3888, 3890
15674, 5243, 5257, 5260, 5324
15675, 5213, 5216, 5386, 5199
15676, 5500, 4869, 2133, 5710
15677, 1357, 1021, 201, 5750
15678, 1833, 1832, 4514, 5719
15679, 4530, 5688, 1707, 5759
15680, 2199, 5690, 5557, 5709
15681, 4795, 4799, 5576, 5721
15682, 1795, 4433, 4468, 4467
15683, 4535, 4539, 5691, 5695
15684, 4720, 4524, 374, 5730
15685, 4024, 4166, 3791, 4168
15686, 5528, 1689, 5537, 4356
15687, 2199, 4800, 5554, 4966
15688, 5518, 2069, 5494, 5710
15689, 4677, 5698, 5692, 5703
15690, 4520, 5720, 4529, 5741
15691, 1958, 5726, 4723, 5732
15692, 4528, 5701, 4518, 5705
15693, 4481, 4482, 4343, 5742
15694, 4134, 4150, 4151, 4084
15695, 4072, 4193, 4161, 4162
15696, 1739, 1767, 4420, 5738
15697, 4612, 5687, 1944, 5749
15698, 4493, 4616, 4610, 5749
15699, 4548, 1715, 5718, 5730
15700, 4136, 4128, 4077, 1438
15701, 4411, 1720, 4455, 5681
15702, 4963, 5509, 4805, 5724
15703, 3972, 3901, 3755, 3992
15704, 3018, 3561, 918, 3307
15705, 4586, 4604, 4689, 5753
15706, 4685, 4709, 4703, 5688
15707, 2159, 4924, 2173, 5558
15708, 4619, 371, 1960, 4636
15709, 2237, 5069, 5017, 2236
15710, 5084, 2268, 2267, 5050
15711, 2287, 2288, 5071, 5090
15712, 2277, 5087, 5059, 2276
15713, 2258, 5041, 5081, 2259
15714, 4938, 4935, 4940, 5690
15715, 4548, 374, 4524, 5730
15716, 4529, 4534, 1831, 5758
15717, 4867, 4866, 5511, 4877
15718, 4958, 2183, 4959, 5690
15719, 931, 1301, 3785, 5740
15720, 4919, 4908, 4909, 5574
15721, 4127, 4136, 4131, 1437
15722, 4511, 371, 4502, 5726
15723, 5093, 5108, 5296, 5314
15724, 5358, 5376, 5154, 5139
15725, 319, 4327, 4332, 5711
15726, 4709, 5688, 4581, 5706
15727, 4401, 4407, 4403, 4467
15728, 4959, 4933, 4960, 5690
15729, 3875, 3879, 3876, 3685
15730, 3648, 3722, 3681, 1021
15731, 4073, 4204, 1417, 4065
15732, 1437, 4077, 4144, 4085
15733, 931, 3464, 91, 5689
15734, 5213, 5386, 5377, 5199
15735, 5243, 5257, 5324, 5315
15736, 795, 820, 56, 3171
15737, 3188, 766, 52, 849
15738, 3882, 3693, 3963, 3900
15739, 3880, 3884, 3992, 3684
15740, 4354, 4353, 1642, 4340
15741, 4148, 4150, 4128, 4084
15742, 4161, 4187, 4072, 4159
15743, 3914, 3690, 3925, 3970
15744, 4149, 4127, 1480, 1586
15745, 4185, 1577, 4160, 1498
15746, 4650, 1944, 1943, 5687
15747, 1607, 297, 5387, 5742
15748, 5543, 5557, 5690, 5709
15749, 212, 4198, 1414, 4056
15750, 3882, 3692, 3693, 3898
15751, 5417, 5368, 2050, 5359
15752, 1112, 5689, 1232, 5725
15753, 1943, 1944, 4612, 5687
15754, 356, 4470, 5531, 5733
15755, 3748, 3888, 3891, 3890
15756, 1641, 1656, 4338, 5742
15757, 5511, 4867, 4877, 4884
15758, 3266, 3079, 3138, 3127
15759, 5355, 5341, 5384, 2323
15760, 2302, 5279, 5322, 5293
15761, 346, 4411, 4455, 5681
15762, 1710, 4516, 1709, 5728
15763, 4671, 5693, 4672, 5729
15764, 3698, 3963, 3693, 3988
15765, 4493, 4610, 4496, 1872
15766, 4525, 5686, 4527, 5708
15767, 4545, 5692, 4544, 5698
15768, 5506, 5511, 4866, 4877
15769, 5691, 5695, 4539, 5736
15770, 116, 3761, 3877, 1357
15771, 4666, 5717, 5686, 5727
15772, 1301, 3785, 1032, 1017
15773, 5549, 4904, 4903, 5566
15774, 4659, 5708, 5686, 5730
15775, 4411, 1784, 4455, 1720
15776, 4134, 4128, 4150, 4084
15777, 4072, 4193, 4187, 4161
15778, 4690, 5726, 4649, 5732
15779, 4795, 5576, 4967, 5721
15780, 724, 2912, 723, 5725
15781, 4709, 4703, 5688, 5706
15782, 4702, 5694, 4679, 5703
15783, 1830, 4520, 4529, 5741
15784, 4694, 5692, 4675, 5728
15785, 4613, 4617, 4547, 5749
15786, 1120, 118, 1022, 5716
15787, 3818, 4155, 1325, 1372
15788, 5139, 5358, 5345, 5149
15789, 5093, 5103, 5283, 5296
15790, 4683, 5703, 5692, 5753
15791, 2069, 4802, 5494, 5682
15792, 1608, 5387, 297, 5742
15793, 1689, 4356, 4332, 5711
15794, 3875, 3976, 3879, 3685
15795, 373, 4549, 4526, 5717
15796, 4540, 5691, 4539, 5736
15797, 5574, 4908, 4911, 4918
15798, 4649, 5726, 4504, 5732
15799, 5439, 5298, 5287, 5274
15800, 5360, 5230, 5438, 5349
15801, 2833, 546, 2703, 2804
15802, 710, 2800, 2834, 2705
15803, 4880, 4866, 5559, 5600
15804, 5521, 5497, 2159, 5512
15805, 5293, 4885, 5279, 5311
15806, 4540, 4541, 4523, 5691
15807, 5377, 5348, 5386, 5213
15808, 5286, 5324, 5257, 5315
15809, 4702, 5687, 4708, 5694
15810, 5341, 5355, 5373, 4941
15811, 4453, 4422, 1738, 4468
15812, 4630, 4657, 4633, 5705
15813, 4348, 4373, 4331, 5742
15814, 1805, 1804, 4436, 4451
15815, 1616, 1617, 4296, 4371
15816, 4441, 1803, 4452, 1804
15817, 4297, 1615, 1616, 4376
15818, 1713, 4535, 1712, 5734
15819, 1709, 4531, 1708, 5753
15820, 2311, 2312, 5313, 5314
15821, 2332, 5376, 5375, 2333
15822, 4184, 4176, 4177, 3849
15823, 3668, 3690, 3914, 3909
15824, 4868, 5573, 4881, 4883
15825, 5237, 5309, 5310, 5238
15826, 5372, 5193, 5194, 5371
15827, 3675, 3692, 3895, 3898
15828, 3761, 3695, 3740, 1357
15829, 5561, 4808, 2069, 5682
15830, 4881, 5507, 4868, 4883
15831, 5223, 5192, 5388, 1672
15832, 1758, 5267, 5236, 5326
15833, 1120, 1289, 204, 1421
15834, 5188, 5366, 293, 5229
15835, 5232, 5273, 356, 5304
15836, 4542, 4544, 4516, 5692
15837, 4544, 4545, 4531, 5692
15838, 5256, 5255, 5310, 5238
15839, 5194, 5212, 5211, 5372
15840, 297, 1607, 1672, 5742
15841, 4529, 4542, 5693, 5720
15842, 5542, 5543, 5552, 5690
15843, 4413, 4431, 4446, 5738
15844, 4678, 5698, 4679, 5731
15845, 3982, 3708, 3880, 3684
15846, 4614, 4547, 4617, 5749
15847, 5732, 5754, 4690, 5756
15848, 3462, 3049, 29, 947
15849, 4909, 5565, 4919, 5574
15850, 3266, 3138, 3108, 3127
15851, 4327, 1642, 4340, 5702
15852, 4535, 4539, 4540, 5691
15853, 4866, 4880, 5559, 4875
15854, 3467, 89, 1231, 3019
15855, 5266, 5334, 5254, 1765
15856, 1665, 5222, 5396, 5210
15857, 4524, 4525, 1715, 5730
15858, 1714, 4600, 4552, 5708
15859, 2204, 5682, 5544, 5685
15860, 4326, 4351, 1652, 1653
15861, 1738, 1737, 4410, 4453
15862, 1859, 1844, 1710, 5728
15863, 4456, 1719, 1785, 5739
15864, 5529, 4458, 5532, 1783
15865, 1416, 4074, 4065, 4205
15866, 3884, 3901, 3686, 3678
15867, 4523, 1712, 4535, 5691
15868, 5190, 5206, 5396, 5210
15869, 5250, 5334, 5254, 5234
15870, 3969, 3686, 3901, 3886
15871, 4529, 4542, 4534, 5693
15872, 4807, 4801, 4800, 5709
15873, 3877, 3761, 3989, 1357
15874, 5274, 5439, 5298, 5248
15875, 5204, 5230, 5438, 5360
15876, 4672, 4671, 4673, 5693
15877, 4907, 4912, 5549, 5601
15878, 4204, 4203, 4058, 1417
15879, 4143, 4091, 1437, 4144
15880, 1901, 4630, 1828, 5731
15881, 326, 1813, 5335, 5738
15882, 4614, 4616, 4607, 4547
15883, 4540, 4541, 5691, 5729
15884, 4648, 5731, 4627, 5741
15885, 4877, 4875, 4866, 5506
15886, 3899, 3675, 3692, 3895
15887, 1641, 4354, 1687, 5744
15888, 300, 1665, 1598, 5704
15889, 5691, 5695, 4665, 5734
15890, 4882, 5569, 4870, 2129
15891, 1709, 4516, 4531, 5692
15892, 323, 1758, 1823, 5707
15893, 5211, 5372, 5423, 5697
15894, 5255, 5421, 5310, 5696
15895, 4430, 1720, 4411, 5733
15896, 4145, 4148, 4128, 4086
15897, 422, 5682, 5490, 5721
15898, 5257, 1721, 1824, 5286
15899, 1609, 5348, 1643, 5213
15900, 5106, 2312, 5093, 5283
15901, 5139, 5345, 2333, 5152
15902, 4923, 4910, 2152, 5570
15903, 4618, 4555, 4615, 4613
15904, 1871, 4709, 4581, 5706
15905, 1830, 1829, 4520, 5741
15906, 4910, 4906, 5577, 4922
15907, 2432, 2183, 5690, 5723
15908, 4550, 4525, 4527, 5708
15909, 3693, 3882, 3898, 3900
15910, 169, 1373, 3647, 3753
15911, 1715, 4600, 1864, 5718
15912, 2183, 4933, 4959, 5690
15913, 376, 5530, 293, 5711
15914, 3750, 3878, 3881, 3882
15915, 1438, 1439, 4277, 4149
15916, 1431, 1416, 4267, 4160
15917, 5546, 4872, 5569, 4874
15918, 3660, 4003, 3944, 3655
15919, 4691, 4694, 4675, 5728
15920, 5717, 5727, 4666, 5735
15921, 3896, 3902, 3984, 3660
15922, 3133, 3254, 3206, 3076
15923, 4923, 2152, 4910, 5501
15924, 4733, 2107, 4853, 5308
15925, 184, 1289, 204, 5716
15926, 4549, 1836, 4526, 5717
15927, 4915, 5547, 4917, 5570
15928, 5557, 5552, 5543, 5690
15929, 1834, 4522, 1835, 5735
15930, 4735, 4744, 2312, 5313
15931, 4736, 5375, 2333, 4743
15932, 4058, 4073, 4204, 1417
15933, 4144, 4091, 1437, 4085
15934, 4531, 5692, 5703, 5753
15935, 3750, 3761, 3877, 3878
15936, 5354, 5386, 5387, 5216
15937, 5260, 5292, 5324, 5325
15938, 5191, 5354, 5387, 5216
15939, 5292, 5260, 5235, 5325
15940, 1112, 1029, 119, 5725
15941, 4303, 249, 4262, 1652
15942, 4386, 262, 1737, 4293
15943, 323, 5236, 5235, 5325
15944, 297, 5387, 5191, 5192
15945, 1609, 1643, 5348, 5702
15946, 4720, 374, 1963, 5730
15947, 4065, 4072, 4187, 4159
15948, 4728, 2302, 5279, 5322
15949, 2323, 5341, 5384, 4727
15950, 5385, 293, 289, 5188
15951, 784, 832, 831, 3186
15952, 843, 3185, 771, 844
15953, 5092, 5107, 2303, 5293
15954, 5153, 5355, 5138, 2324
15955, 3921, 3991, 3758, 3940
15956, 3863, 4184, 4178, 4177
15957, 5592, 4798, 4963, 5575
15958, 2204, 4969, 5541, 5544
15959, 4861, 4859, 4860, 5685
15960, 3884, 3678, 3885, 3886
15961, 5519, 4798, 4800, 4966
15962, 3675, 3899, 3909, 3908
15963, 1417, 1416, 4065, 4195
15964, 1438, 4077, 4136, 1437
15965, 4916, 5482, 4914, 5501
15966, 4528, 4519, 5701, 5743
15967, 5532, 5533, 5525, 5681
15968, 5535, 4300, 1624, 5711
15969, 889, 3473, 1223, 77
15970, 5284, 2051, 2052, 5306
15971, 5368, 5346, 2049, 2050
15972, 3884, 3686, 3901, 3684
15973, 4723, 5726, 4725, 5756
15974, 4525, 5708, 1715, 5730
15975, 120, 3757, 3712, 3754
15976, 4332, 4356, 319, 5711
15977, 2204, 5544, 5541, 5685
15978, 1720, 5681, 4411, 5733
15979, 4520, 5698, 4544, 5720
15980, 132, 1083, 3171, 1082
15981, 124, 1045, 3188, 1044
15982, 3889, 3888, 3887, 3673
15983, 229, 1464, 1449, 5405
15984, 1824, 5286, 1721, 5733
15985, 4319, 1675, 1673, 5747
15986, 3221, 3095, 3092, 3137
15987, 5286, 1721, 352, 5323
15988, 4664, 4665, 5695, 5734
15989, 4882, 4870, 5523, 2129
15990, 3792, 4020, 3799, 3790
15991, 3890, 3723, 3968, 3892
15992, 3849, 3863, 3852, 3856
15993, 3225, 3096, 3095, 3097
15994, 5255, 5237, 5310, 5238
15995, 5194, 5211, 5193, 5372
15996, 3678, 3885, 3886, 3887
15997, 4415, 4414, 4450, 5733
15998, 4653, 4689, 4694, 5728
15999, 5693, 5719, 4534, 5758
16000, 5213, 5377, 5348, 5208
16001, 5286, 5257, 5252, 5315
16002, 4665, 4697, 5691, 5734
16003, 459, 2183, 4958, 5690
16004, 3902, 3669, 3667, 3904
16005, 4648, 4692, 4627, 5731
16006, 1871, 1872, 4610, 5706
16007, 1010, 3189, 870, 113
16008, 4659, 4661, 5686, 5708
16009, 4678, 4679, 4680, 5731
16010, 5271, 5256, 5277, 5238
16011, 5194, 5227, 5212, 5339
16012, 3892, 3893, 3696, 3894
16013, 4911, 4924, 5574, 4918
16014, 4204, 4203, 1417, 4195
16015, 1437, 4136, 4143, 4144
16016, 799, 758, 3053, 971
16017, 797, 3054, 952, 818
16018, 1707, 4530, 1706, 5688
16019, 4919, 4909, 4908, 5513
16020, 4179, 4184, 3863, 3849
16021, 3462, 3049, 947, 936
16022, 5233, 326, 1739, 5738
16023, 3889, 3974, 3667, 3673
16024, 3887, 3913, 3673, 3677
16025, 4861, 4860, 4856, 5685
16026, 3906, 3730, 3659, 3894
16027, 5355, 5447, 5414, 2324
16028, 2303, 5293, 5446, 5415
16029, 5445, 5303, 5449, 5250
16030, 5206, 5444, 5365, 5448
16031, 99, 952, 3051, 951
16032, 4808, 5682, 5561, 5721
16033, 2302, 5092, 2303, 5293
16034, 5355, 2323, 5138, 2324
16035, 5575, 4800, 4798, 4966
16036, 4620, 4657, 4706, 5705
16037, 4142, 96, 1465, 1113
16038, 5510, 4905, 4904, 4920
16039, 4520, 4544, 4529, 5720
16040, 4526, 4549, 373, 4721
16041, 5488, 5682, 2113, 5710
16042, 5284, 5304, 2051, 5306
16043, 5366, 5368, 5346, 2049
16044, 4638, 4668, 4654, 4631
16045, 2705, 710, 2800, 3071
16046, 5698, 5720, 4520, 5741
16047, 1654, 5704, 4337, 5747
16048, 5204, 5230, 5360, 5349
16049, 5274, 5298, 5287, 5248
16050, 3190, 76, 3148, 882
16051, 4869, 5602, 4868, 4883
16052, 3029, 92, 3450, 931
16053, 5229, 5366, 5368, 5215
16054, 589, 590, 634, 3069
16055, 5314, 5313, 2311, 5297
16056, 5359, 5376, 5375, 2332
16057, 5581, 5682, 5556, 5710
16058, 5552, 5597, 5542, 5690
16059, 131, 1074, 3170, 1073
16060, 123, 1036, 3187, 1035
16061, 4869, 4868, 5500, 4883
16062, 4532, 4541, 4542, 5693
16063, 4139, 4079, 4129, 4135
16064, 4067, 4194, 4200, 4188
16065, 4145, 4147, 4148, 1438
16066, 3883, 3879, 3956, 3683
16067, 1942, 4708, 4609, 5687
16068, 3992, 3901, 3686, 3684
16069, 707, 35, 36, 2834
16070, 3878, 3750, 3695, 3910
16071, 4697, 4699, 4671, 5691
16072, 249, 4262, 1652, 5712
16073, 262, 1737, 4293, 5713
16074, 3884, 3683, 3678, 3684
16075, 5537, 376, 4304, 5711
16076, 3740, 3681, 3722, 1021
16077, 3675, 3898, 3978, 3724
16078, 2185, 5373, 2186, 5745
16079, 4689, 4694, 5728, 5753
16080, 5562, 5599, 4867, 4876
16081, 5348, 1643, 5213, 5188
16082, 1721, 5257, 5232, 5286
16083, 3708, 3757, 3903, 3876
16084, 5561, 5556, 5682, 5710
16085, 3762, 3750, 3761, 3877
16086, 4696, 4666, 5727, 5735
16087, 4073, 4202, 4204, 4065
16088, 4077, 4141, 4144, 4085
16089, 4642, 4623, 1902, 5741
16090, 5531, 5538, 5534, 5681
16091, 4928, 4925, 4926, 5745
16092, 5550, 2204, 5576, 5721
16093, 5092, 2302, 5109, 5280
16094, 2323, 5155, 5342, 5138
16095, 3848, 1019, 1023, 5699
16096, 4665, 4664, 4697, 5734
16097, 1858, 4606, 1845, 5728
16098, 5505, 4912, 4902, 4921
16099, 4319, 4325, 4323, 4301
16100, 3978, 3898, 3693, 3724
16101, 3190, 76, 1105, 3148
16102, 69, 864, 866, 1108
16103, 5273, 356, 324, 5232
16104, 5188, 293, 296, 5229
16105, 3754, 3876, 3757, 3685
16106, 4696, 5727, 4669, 5735
16107, 4079, 4152, 4129, 4135
16108, 4163, 4194, 4067, 4188
16109, 5191, 5228, 5354, 5216
16110, 5272, 5260, 5235, 5292
16111, 2173, 5543, 5690, 5709
16112, 4048, 1330, 4051, 5760
16113, 1925, 4611, 1924, 5705
16114, 373, 5717, 1962, 5756
16115, 5280, 5102, 5092, 5321
16116, 5138, 5342, 5383, 5148
16117, 4657, 4633, 4620, 4706
16118, 3673, 3889, 3888, 3723
16119, 5348, 1643, 289, 5702
16120, 157, 3474, 1259, 1135
16121, 3978, 3724, 3952, 3908
16122, 3222, 3225, 3096, 3095
16123, 5719, 5729, 4514, 5737
16124, 5259, 5273, 5232, 5278
16125, 357, 1867, 1705, 1686
16126, 249, 4260, 4262, 5712
16127, 262, 4293, 4291, 5713
16128, 2312, 5106, 4735, 5283
16129, 5345, 2333, 5152, 4736
16130, 4911, 4924, 5558, 5574
16131, 293, 4298, 5702, 5711
16132, 4616, 4607, 4547, 1704
16133, 3678, 3901, 3686, 3886
16134, 284, 258, 1812, 1737
16135, 1652, 274, 247, 1597
16136, 5348, 1609, 5386, 5213
16137, 1824, 5324, 5257, 5286
16138, 4423, 4456, 1720, 1719
16139, 587, 588, 636, 3066
16140, 4354, 1642, 1641, 4340
16141, 3172, 1049, 1048, 127
16142, 5257, 5243, 5252, 5315
16143, 5208, 5213, 5377, 5199
16144, 4594, 1707, 5688, 5759
16145, 1712, 1843, 1861, 4585
16146, 5504, 4865, 4870, 4878
16147, 4657, 4693, 4706, 5705
16148, 5313, 2312, 5283, 5314
16149, 5345, 5375, 5376, 2333
16150, 4534, 5719, 5693, 5729
16151, 5206, 5203, 5190, 5397
16152, 5490, 5488, 5494, 5682
16153, 5695, 5708, 4550, 5727
16154, 3647, 3712, 1030, 3711
16155, 4180, 4182, 3845, 3860
16156, 4909, 4905, 5514, 4919
16157, 4514, 5719, 4534, 5729
16158, 724, 723, 3169, 5725
16159, 1010, 732, 869, 733
16160, 3673, 3913, 3974, 3677
16161, 4007, 3693, 3900, 3727
16162, 3887, 3886, 3678, 3748
16163, 591, 592, 632, 3058
16164, 3708, 3903, 3955, 3982
16165, 3684, 3880, 3683, 3685
16166, 3710, 119, 1030, 3706
16167, 5537, 4304, 376, 5526
16168, 4627, 5731, 4623, 5741
16169, 2173, 4937, 4940, 5690
16170, 2832, 3073, 627, 2816
16171, 2284, 5068, 483, 5613
16172, 5655, 2299, 509, 5086
16173, 2301, 5089, 516, 5669
16174, 503, 2297, 5083, 5641
16175, 2295, 497, 5627, 5080
16176, 4139, 4140, 4129, 4083
16177, 4201, 4071, 4200, 4188
16178, 4007, 3900, 3988, 3727
16179, 5341, 4952, 2186, 4727
16180, 4895, 2107, 4728, 5279
16181, 45, 74, 879, 881
16182, 71, 46, 866, 864
16183, 3901, 3686, 3755, 3992
16184, 45, 2927, 879, 2843
16185, 4627, 4692, 4623, 5731
16186, 2432, 2183, 459, 5690
16187, 637, 586, 587, 3060
16188, 4086, 4145, 4148, 1438
16189, 528, 2403, 4859, 2433
16190, 5443, 5453, 5357, 5145
16191, 5452, 5295, 5099, 5442
16192, 4325, 4319, 1673, 5747
16193, 5582, 5576, 4965, 4795
16194, 5292, 5243, 5260, 5324
16195, 5216, 5354, 5386, 5199
16196, 5250, 5303, 5334, 5234
16197, 4535, 5695, 5691, 5734
16198, 3018, 918, 3561, 3616
16199, 866, 46, 2844, 2926
16200, 4712, 5726, 4690, 5756
16201, 5327, 5253, 5269, 1821
16202, 1942, 4708, 5687, 5701
16203, 5597, 5586, 4935, 5690
16204, 2800, 2817, 2834, 2705
16205, 2816, 2833, 2703, 2804
16206, 3882, 3693, 3750, 3963
16207, 546, 3073, 2703, 2804
16208, 4380, 4368, 4329, 1597
16209, 357, 4493, 1872, 5706
16210, 3881, 3692, 3750, 3882
16211, 4662, 4669, 5727, 5736
16212, 3672, 3974, 3913, 3677
16213, 5566, 4904, 4905, 4920
16214, 4586, 4589, 4604, 5753
16215, 5440, 5203, 5444, 5349
16216, 5445, 5441, 5287, 5247
16217, 3667, 3902, 3896, 3660
16218, 5262, 5329, 5330, 5290
16219, 5391, 5392, 5352, 5218
16220, 5388, 5209, 5223, 1672
16221, 5267, 1758, 5253, 5326
16222, 5045, 4987, 471, 2217
16223, 2080, 5021, 404, 4823
16224, 5009, 2229, 477, 5054
16225, 1715, 4552, 4600, 5708
16226, 4551, 4526, 1836, 5717
16227, 4565, 4563, 1748, 5707
16228, 1624, 4298, 5530, 5711
16229, 4883, 5500, 4869, 2133
16230, 4152, 4129, 4151, 4079
16231, 4188, 4067, 4163, 4162
16232, 3992, 3755, 3982, 3684
16233, 633, 590, 591, 3063
16234, 5191, 1608, 297, 5742
16235, 171, 168, 4126, 1292
16236, 588, 589, 635, 3061
16237, 3730, 3892, 3696, 3894
16238, 5557, 2199, 5552, 5690
16239, 4619, 4668, 4632, 4631
16240, 5502, 4967, 5496, 4795
16241, 4563, 4564, 1758, 5707
16242, 5544, 5682, 5581, 5685
16243, 3450, 3457, 3029, 931
16244, 1828, 4533, 1829, 5731
16245, 4586, 5728, 4589, 5753
16246, 3750, 3963, 3698, 3910
16247, 4969, 2204, 5541, 5685
16248, 3219, 3092, 3093, 3221
16249, 631, 592, 593, 3068
16250, 4959, 4960, 4958, 5690
16251, 2674, 679, 3016, 2670
16252, 2159, 4911, 4924, 5558
16253, 4072, 4065, 4074, 4159
16254, 3706, 3747, 1030, 3647
16255, 5338, 5372, 5193, 5697
16256, 3849, 3863, 4179, 3847
16257, 2683, 2684, 663, 2944
16258, 5237, 5310, 5276, 5696
16259, 5234, 326, 5335, 1765
16260, 3939, 3996, 3777, 4008
16261, 5108, 5296, 5314, 5432
16262, 5358, 5376, 5433, 5154
16263, 4504, 4705, 4649, 5732
16264, 1822, 5325, 323, 1823
16265, 4550, 5695, 4513, 5708
16266, 5256, 5310, 5277, 5238
16267, 5372, 5194, 5212, 5339
16268, 5189, 1654, 300, 5704
16269, 4429, 4419, 4410, 5713
16270, 4336, 4345, 4326, 5712
16271, 4524, 5686, 4525, 5730
16272, 2061, 5521, 5516, 5709
16273, 4491, 1665, 4492, 5704
16274, 1017, 3167, 1032, 3166
16275, 5253, 5327, 5291, 5326
16276, 5389, 5353, 5388, 5209
16277, 5253, 4397, 5269, 1821
16278, 4084, 4079, 4134, 4140
16279, 4067, 4201, 4072, 4193
16280, 5138, 5383, 5355, 5153
16281, 5107, 5092, 5321, 5293
16282, 4961, 4935, 5586, 5690
16283, 5310, 5420, 5255, 5256
16284, 5422, 5211, 5212, 5372
16285, 629, 594, 595, 3065
16286, 1894, 4642, 1902, 5741
16287, 4592, 4656, 4593, 5746
16288, 4684, 4702, 4679, 5703
16289, 3708, 3880, 3684, 3685
16290, 3885, 3683, 3883, 3983
16291, 4155, 4156, 1335, 1287
16292, 5303, 5335, 5334, 5234
16293, 5235, 323, 1823, 5707
16294, 5541, 5588, 4969, 5685
16295, 1739, 1738, 4422, 4468
16296, 4173, 4024, 3798, 4169
16297, 5582, 5598, 5567, 5724
16298, 1822, 323, 1758, 1823
16299, 1599, 300, 1665, 1598
16300, 5325, 5236, 5299, 5326
16301, 5361, 5387, 5388, 5192
16302, 4649, 4690, 4712, 5726
16303, 4159, 4161, 4187, 1488
16304, 1473, 4148, 4150, 4128
16305, 1864, 1863, 313, 312
16306, 116, 3695, 3681, 1021
16307, 247, 4265, 4264, 5712
16308, 4287, 4288, 258, 5713
16309, 709, 710, 2705, 3071
16310, 3982, 3708, 3903, 3876
16311, 1654, 1598, 1597, 5704
16312, 3909, 3977, 3668, 3930
16313, 2171, 5577, 5563, 4922
16314, 583, 584, 640, 3064
16315, 5363, 5393, 5351, 5220
16316, 5331, 5289, 5264, 5301
16317, 4409, 4404, 4403, 4467
16318, 3983, 3885, 3683, 3677
16319, 5332, 5289, 5261, 5331
16320, 5393, 5394, 5351, 5217
16321, 3254, 3114, 3121, 3133
16322, 1823, 1824, 1719, 5707
16323, 1859, 4590, 1844, 5728
16324, 3690, 3691, 3925, 3970
16325, 1119, 1385, 1022, 5700
16326, 4544, 5698, 5692, 5720
16327, 3683, 3879, 3956, 3731
16328, 3217, 3246, 3821, 981
16329, 5319, 5318, 5099, 5295
16330, 5357, 5381, 5380, 5145
16331, 5193, 5372, 5211, 5697
16332, 249, 248, 4260, 5712
16333, 262, 4291, 259, 5713
16334, 5310, 5237, 5255, 5696
16335, 4543, 4517, 4545, 5703
16336, 4677, 4694, 4683, 5692
16337, 5299, 5236, 5251, 5326
16338, 5207, 5361, 5388, 5192
16339, 4007, 3900, 3693, 3724
16340, 3664, 3659, 3894, 3907
16341, 4905, 4909, 5565, 4919
16342, 5432, 5108, 5296, 5430
16343, 5358, 5433, 5431, 5154
16344, 5093, 2311, 5108, 5314
16345, 2332, 5154, 5376, 5139
16346, 640, 584, 583, 2628
16347, 3857, 3851, 1019, 3848
16348, 4527, 4512, 4526, 5686
16349, 4536, 1833, 4514, 5737
16350, 3857, 3855, 3848, 3864
16351, 1721, 5286, 352, 5733
16352, 3941, 3940, 3769, 4009
16353, 1642, 1643, 5702, 5711
16354, 316, 4367, 4344, 4352
16355, 4454, 349, 4469, 4428
16356, 3724, 3978, 3675, 3908
16357, 2173, 4937, 5542, 5543
16358, 4151, 1474, 4150, 4134
16359, 4162, 4193, 4161, 1489
16360, 4171, 4022, 3795, 4170
16361, 1599, 1665, 5190, 5396
16362, 3989, 3762, 3761, 3877
16363, 3723, 3891, 3696, 3890
16364, 4193, 4187, 4161, 1488
16365, 4128, 4150, 1473, 4134
16366, 3847, 3849, 3863, 3852
16367, 4674, 5693, 4675, 5720
16368, 4685, 4591, 4581, 5688
16369, 5287, 5328, 5335, 5233
16370, 5390, 5189, 5349, 5397
16371, 3988, 3698, 3963, 3996
16372, 4545, 4517, 4531, 5703
16373, 1295, 3965, 4003, 3655
16374, 3664, 3894, 3893, 3964
16375, 3242, 1129, 3206, 3076
16376, 1643, 4356, 4304, 5711
16377, 3893, 3919, 3736, 3920
16378, 4646, 4660, 4659, 5708
16379, 1689, 319, 4332, 4356
16380, 5285, 5311, 2106, 5722
16381, 3133, 3121, 3254, 3076
16382, 3722, 118, 1289, 5716
16383, 5253, 5327, 5326, 1821
16384, 5389, 5388, 1606, 5209
16385, 5455, 5263, 5449, 5288
16386, 5454, 5350, 5448, 5219
16387, 4701, 4583, 4601, 5734
16388, 4903, 4904, 4905, 5566
16389, 3969, 3891, 3736, 3748
16390, 4851, 4733, 4849, 5337
16391, 5316, 5283, 5103, 5296
16392, 5358, 5378, 5345, 5149
16393, 1856, 1855, 1707, 1688
16394, 1901, 1900, 1786, 1828
16395, 3968, 3944, 3906, 3730
16396, 3879, 3683, 3685, 3731
16397, 5277, 5309, 284, 5238
16398, 3059, 634, 590, 3069
16399, 4798, 4805, 4963, 5499
16400, 5692, 5698, 4677, 5720
16401, 528, 5682, 2433, 5685
16402, 636, 588, 3061, 3066
16403, 4919, 5514, 4909, 5513
16404, 3996, 3988, 3777, 4008
16405, 5577, 4923, 4910, 4922
16406, 5500, 2133, 5520, 5710
16407, 4659, 5686, 4663, 5730
16408, 1707, 1855, 1706, 1688
16409, 1827, 1786, 1900, 1828
16410, 5283, 4735, 2312, 5313
16411, 2333, 5345, 5375, 4736
16412, 3957, 3913, 3983, 3677
16413, 4679, 5698, 4677, 5703
16414, 4129, 4134, 4151, 4079
16415, 4067, 4188, 4193, 4162
16416, 3944, 3968, 3984, 3660
16417, 3221, 3223, 3095, 3137
16418, 3859, 3845, 4182, 3860
16419, 4536, 4514, 5729, 5737
16420, 5376, 5358, 5345, 5139
16421, 5296, 5283, 5093, 5314
16422, 3221, 3092, 3093, 3224
16423, 3915, 3668, 3691, 3914
16424, 3890, 3696, 3723, 3892
16425, 4670, 5729, 5719, 5737
16426, 357, 1705, 4493, 5706
16427, 1475, 4129, 4151, 4152
16428, 4163, 1490, 4188, 4162
16429, 4188, 4193, 4162, 1489
16430, 4151, 1474, 4134, 4129
16431, 3, 627, 3073, 2804
16432, 4805, 4797, 4798, 5592
16433, 5691, 5729, 4671, 5736
16434, 3693, 3988, 3900, 3727
16435, 3906, 3892, 3730, 3894
16436, 724, 2857, 43, 723
16437, 3925, 3915, 3691, 3914
16438, 4018, 4007, 3931, 3725
16439, 4421, 1719, 5707, 5739
16440, 1676, 1675, 1865, 1716
16441, 1795, 1796, 1910, 1837
16442, 5329, 5244, 5265, 5290
16443, 5360, 5212, 5227, 5339
16444, 5277, 5298, 5256, 5271
16445, 4647, 4698, 4585, 5734
16446, 1232, 4142, 1449, 1113
16447, 5287, 5303, 5445, 5247
16448, 5349, 5203, 5444, 5365
16449, 970, 3073, 2832, 2816
16450, 589, 699, 590, 3069
16451, 3885, 3678, 3683, 3677
16452, 2204, 5544, 5682, 5721
16453, 4136, 4127, 1438, 1437
16454, 5534, 5538, 4416, 5681
16455, 3897, 3667, 3669, 3904
16456, 5541, 5544, 5581, 5685
16457, 723, 724, 3169, 3166
16458, 4662, 5727, 5695, 5736
16459, 5581, 2113, 4863, 5685
16460, 5326, 5325, 5236, 1822
16461, 1607, 5388, 5387, 5192
16462, 1686, 4354, 1705, 1687
16463, 4647, 4697, 4698, 5734
16464, 637, 587, 3066, 3060
16465, 1599, 5397, 300, 1598
16466, 1673, 4490, 4492, 5704
16467, 5318, 5282, 5098, 5295
16468, 5380, 5344, 5357, 5144
16469, 5500, 5498, 4869, 5710
16470, 326, 5234, 5266, 1765
16471, 5222, 300, 1665, 5190
16472, 4456, 1826, 1785, 1784
16473, 5544, 5550, 5561, 5721
16474, 2967, 2954, 2959, 2664
16475, 5563, 2171, 4922, 4921
16476, 1834, 1833, 4536, 5737
16477, 5303, 5242, 5449, 5250
16478, 5448, 5365, 5206, 5198
16479, 1571, 1530, 1529, 1505
16480, 4065, 4202, 4204, 4187
16481, 4128, 4077, 4141, 4144
16482, 5325, 5235, 323, 1823
16483, 5387, 1608, 297, 5191
16484, 4961, 4960, 4935, 5690
16485, 1677, 4351, 316, 4326
16486, 1797, 4410, 349, 4453
16487, 1855, 357, 4597, 5706
16488, 1119, 152, 4069, 211
16489, 4674, 4673, 4675, 5693
16490, 4165, 1492, 4189, 4164
16491, 630, 593, 594, 3062
16492, 5436, 5442, 5317, 2382
16493, 2411, 5437, 5443, 5379
16494, 4534, 5693, 4541, 5729
16495, 3710, 4006, 3773, 3699
16496, 5265, 5329, 5290, 5300
16497, 5352, 5362, 5391, 5221
16498, 1842, 1712, 1861, 5734
16499, 698, 589, 588, 3061
16500, 4677, 4675, 5692, 5720
16501, 4703, 1945, 1944, 5706
16502, 5565, 4919, 2169, 4920
16503, 5458, 5463, 5351, 5220
16504, 5264, 5459, 5462, 5289
16505, 5328, 5287, 5248, 5233
16506, 5349, 5204, 5189, 5390
16507, 2106, 5311, 5285, 5308
16508, 5197, 5351, 5393, 5220
16509, 5289, 5264, 5241, 5331
16510, 3897, 3667, 3974, 3672
16511, 5315, 5252, 5286, 5278
16512, 5377, 5340, 5348, 5208
16513, 4994, 5572, 396, 4831
16514, 1896, 5719, 4643, 5758
16515, 4724, 4723, 1963, 5754
16516, 1337, 3848, 3850, 5750
16517, 4592, 1961, 5746, 5757
16518, 5216, 5228, 5354, 5199
16519, 5243, 5260, 5272, 5292
16520, 4971, 2204, 4972, 5685
16521, 5145, 5380, 5357, 5141
16522, 5318, 5095, 5099, 5295
16523, 1715, 1714, 4600, 4552
16524, 3978, 3693, 3900, 3724
16525, 4194, 4163, 1490, 4188
16526, 4152, 1475, 4129, 4135
16527, 149, 1113, 4081, 230
16528, 4163, 4164, 4194, 1491
16529, 4153, 1476, 4152, 4135
16530, 5309, 5277, 5310, 5238
16531, 5339, 5372, 5194, 5371
16532, 4198, 1119, 1385, 1422
16533, 4022, 4021, 3795, 4170
16534, 4694, 4683, 5692, 5753
16535, 4079, 4129, 4134, 4140
16536, 4201, 4067, 4188, 4193
16537, 5686, 5708, 4525, 5730
16538, 632, 591, 3058, 3063
16539, 1463, 4091, 1437, 4143
16540, 1402, 1417, 4058, 4203
16541, 3821, 3081, 3217, 981
16542, 4610, 1871, 4496, 1872
16543, 3968, 3944, 3730, 3660
16544, 4867, 4864, 2117, 5564
16545, 5347, 5373, 5723, 5745
16546, 4521, 4555, 4617, 4547
16547, 2199, 4962, 5552, 5690
16548, 3710, 1030, 4006, 3699
16549, 3621, 3008, 3393, 3307
16550, 1609, 5348, 289, 5702
16551, 2169, 5566, 5565, 4920
16552, 5372, 5338, 5193, 5371
16553, 5309, 5310, 5276, 5237
16554, 3152, 5699, 3153, 5750
16555, 3791, 3787, 3798, 4024
16556, 1654, 1597, 1653, 5704
16557, 3941, 3931, 4007, 3725
16558, 2640, 2645, 2639, 2957
16559, 3761, 3750, 116, 3878
16560, 5454, 5364, 5350, 5219
16561, 5263, 5455, 5302, 5288
16562, 4006, 3980, 3780, 3699
16563, 3069, 635, 589, 3061
16564, 4204, 4057, 4073, 4058
16565, 4091, 4144, 4090, 4085
16566, 4859, 528, 2433, 5685
16567, 3068, 631, 592, 3058
16568, 4079, 4134, 4151, 4084
16569, 4193, 4072, 4067, 4162
16570, 5346, 5366, 2049, 4731
16571, 5304, 2051, 4732, 5284
16572, 5227, 5360, 5339, 5390
16573, 5298, 5277, 5328, 5271
16574, 1654, 4339, 1653, 5747
16575, 3820, 980, 3216, 3821
16576, 3073, 627, 3, 3070
16577, 952, 3054, 797, 3050
16578, 3678, 3686, 3884, 3684
16579, 3899, 3675, 3898, 3908
16580, 1719, 1824, 1720, 5707
16581, 4862, 5585, 4863, 5685
16582, 3927, 3926, 3691, 3925
16583, 3727, 3988, 3941, 4008
16584, 587, 697, 588, 3066
16585, 2314, 2144, 2313, 2338
16586, 2144, 2314, 2339, 2338
16587, 2339, 2314, 2042, 2338
16588, 2313, 2043, 2314, 2338
16589, 3055, 628, 595, 3065
16590, 4640, 1898, 1907, 5737
16591, 2204, 5682, 422, 5721
16592, 4670, 4672, 5719, 5729
16593, 5322, 5109, 2302, 5280
16594, 5342, 5384, 5155, 2323
16595, 5299, 5249, 5292, 5476
16596, 5354, 5361, 5477, 5205
16597, 5699, 5716, 3153, 5750
16598, 4965, 2201, 5582, 5724
16599, 1120, 1385, 1119, 1422
16600, 4544, 4542, 4529, 5720
16601, 5271, 1812, 5328, 1739
16602, 5390, 5227, 1654, 1597
16603, 3885, 3983, 3913, 3677
16604, 2833, 2703, 689, 2816
16605, 2834, 2817, 708, 2705
16606, 3081, 3219, 3126, 3217
16607, 5498, 5500, 5520, 5710
16608, 264, 281, 533, 2375
16609, 532, 277, 265, 2359
16610, 1006, 3204, 109, 1005
16611, 22, 2939, 643, 644
16612, 5083, 2267, 499, 5051
16613, 5042, 5080, 493, 2258
16614, 2287, 5072, 512, 5089
16615, 5086, 505, 5060, 2276
16616, 2236, 5018, 479, 5068
16617, 4189, 4194, 4164, 1491
16618, 297, 5192, 5223, 1672
16619, 5267, 323, 1758, 5236
16620, 5581, 5682, 2113, 5685
16621, 4140, 4134, 4084, 4075
16622, 4201, 4063, 4072, 4193
16623, 4146, 171, 4126, 1292
16624, 4588, 4701, 4601, 5734
16625, 1599, 5190, 5397, 5396
16626, 2115, 4865, 5559, 5578
16627, 1449, 1112, 1232, 1113
16628, 1608, 5191, 5216, 1641
16629, 1719, 5235, 5260, 1823
16630, 2143, 2144, 2314, 2339
16631, 2043, 2042, 2314, 2338
16632, 663, 2683, 2944, 896
16633, 1030, 5689, 3167, 5740
16634, 4632, 4710, 4668, 4619
16635, 5395, 5350, 5364, 5219
16636, 5288, 5302, 5263, 5333
16637, 4381, 4368, 4380, 1597
16638, 5239, 5253, 5327, 5291
16639, 5353, 5389, 5195, 5209
16640, 5239, 5253, 5269, 5327
16641, 5209, 5389, 5195, 5225
16642, 3030, 3463, 3447, 3446
16643, 380, 5540, 5533, 5681
16644, 5462, 5264, 5289, 5301
16645, 5463, 5363, 5351, 5220
16646, 4534, 4541, 4514, 5729
16647, 5442, 5317, 5095, 5436
16648, 5437, 5443, 5379, 5141
16649, 4610, 1944, 5706, 5749
16650, 3914, 3915, 3668, 3909
16651, 3673, 3888, 3887, 3748
16652, 346, 4455, 4458, 5681
16653, 2093, 4847, 2092, 5066
16654, 2249, 5078, 2250, 5040
16655, 584, 640, 3064, 3057
16656, 3063, 633, 590, 3059
16657, 3686, 3979, 3901, 3972
16658, 3777, 3988, 3727, 4008
16659, 4181, 4180, 3846, 3861
16660, 4536, 5729, 5736, 5737
16661, 4525, 4524, 4512, 5686
16662, 1494, 1498, 4160, 5697
16663, 1480, 1482, 4149, 5696
16664, 4659, 4661, 4663, 5686
16665, 3848, 1019, 3857, 1023
16666, 5236, 5253, 5251, 5326
16667, 5192, 5388, 5207, 5209
16668, 3699, 3757, 3980, 3770
16669, 3664, 3973, 3663, 3907
16670, 592, 591, 701, 3058
16671, 4514, 1832, 4534, 5719
16672, 3899, 3690, 3981, 3692
16673, 640, 583, 3064, 2628
16674, 4515, 5688, 5687, 5749
16675, 3897, 3889, 3667, 3896
16676, 2639, 2649, 2961, 2960
16677, 3225, 3095, 3223, 3097
16678, 1812, 5328, 5277, 5271
16679, 5390, 5339, 5227, 1597
16680, 4708, 1943, 1942, 4609
16681, 1625, 4382, 4383, 5702
16682, 1842, 1861, 4602, 5734
16683, 5490, 5682, 5494, 5721
16684, 1607, 5387, 1608, 5742
16685, 3863, 3862, 4179, 3847
16686, 4522, 4550, 4527, 5727
16687, 1224, 91, 3464, 5689
16688, 3757, 120, 3903, 3876
16689, 4630, 4644, 4657, 5731
16690, 5575, 4798, 4963, 4966
16691, 3977, 3985, 3915, 3735
16692, 4592, 4593, 4580, 5746
16693, 5467, 5469, 5265, 5290
16694, 5352, 5466, 5468, 5221
16695, 5484, 5485, 529, 5709
16696, 4674, 5719, 5693, 5758
16697, 4537, 4538, 4528, 5687
16698, 5311, 2106, 2107, 5308
16699, 3952, 3724, 3665, 3908
16700, 2133, 5556, 2069, 5710
16701, 587, 586, 696, 3060
16702, 3249, 3221, 3092, 3137
16703, 4646, 4658, 4587, 5718
16704, 5102, 5107, 5092, 5321
16705, 5153, 5138, 5383, 5148
16706, 5534, 5540, 5531, 5681
16707, 5273, 5259, 2052, 5306
16708, 5215, 5368, 5229, 2050
16709, 2951, 2674, 3016, 2670
16710, 1121, 866, 2926, 5700
16711, 1739, 338, 1767, 5738
16712, 1686, 319, 4353, 4327
16713, 3621, 3393, 3005, 3587
16714, 5233, 1739, 1813, 5738
16715, 3140, 3206, 3247, 3115
16716, 3666, 3669, 3902, 3904
16717, 3691, 3926, 3927, 3702
16718, 5496, 2204, 5491, 5721
16719, 1422, 4198, 1415, 5683
16720, 5561, 2069, 5556, 5710
16721, 3247, 3220, 3086, 3082
16722, 3145, 3113, 3233, 3142
16723, 2681, 2641, 2954, 2967
16724, 3673, 3678, 3887, 3677
16725, 3668, 3690, 3899, 3675
16726, 5377, 5386, 5354, 5199
16727, 5324, 5292, 5243, 5315
16728, 5203, 5206, 5444, 5365
16729, 5250, 5445, 5303, 5247
16730, 3797, 3795, 4021, 4170
16731, 1121, 1119, 141, 1414
16732, 169, 5689, 1373, 5740
16733, 5299, 5249, 5236, 5325
16734, 5387, 5361, 5205, 5192
16735, 1017, 44, 92, 723
16736, 3062, 594, 629, 3065
16737, 1129, 3242, 983, 3076
16738, 3747, 1030, 3647, 5689
16739, 1642, 5216, 5386, 5213
16740, 5205, 5354, 5387, 5191
16741, 5235, 5249, 5292, 5325
16742, 4052, 4044, 3827, 3843
16743, 3860, 3853, 3845, 3861
16744, 3845, 4180, 3860, 3861
16745, 1465, 96, 1111, 1113
16746, 4866, 2115, 4865, 5559
16747, 4729, 4732, 2051, 5284
16748, 4730, 5346, 2049, 4731
16749, 5288, 5242, 5449, 5303
16750, 5448, 5350, 5365, 5198
16751, 3909, 3668, 3665, 3930
16752, 110, 1019, 112, 3150
16753, 2314, 2042, 378, 2339
16754, 323, 331, 1758, 5707
16755, 1813, 5335, 5328, 5233
16756, 5397, 5390, 5189, 1598
16757, 4674, 4672, 5693, 5719
16758, 4586, 4653, 4700, 5728
16759, 1330, 5716, 5699, 5750
16760, 4661, 5708, 4660, 5727
16761, 4670, 4671, 5729, 5736
16762, 3108, 3216, 3138, 3266
16763, 4167, 4166, 3798, 4024
16764, 1942, 5687, 4609, 5701
16765, 300, 308, 1665, 5704
16766, 2967, 2641, 2954, 2664
16767, 3222, 3225, 3095, 3223
16768, 5092, 2302, 5280, 5293
16769, 2323, 5342, 5355, 5138
16770, 5139, 5150, 5358, 5149
16771, 5103, 5093, 5104, 5296
16772, 5290, 5469, 5265, 5300
16773, 5362, 5352, 5468, 5221
16774, 5102, 5092, 5105, 5280
16775, 5138, 5151, 5342, 5148
16776, 2637, 2955, 2633, 2641
16777, 3663, 3977, 3973, 3930
16778, 5439, 5441, 5287, 2400
16779, 2429, 5438, 5440, 5349
16780, 3350, 3552, 3311, 3551
16781, 5543, 2173, 5551, 5709
16782, 4724, 5732, 4723, 5755
16783, 5527, 4387, 5539, 5681
16784, 3246, 3081, 3082, 981
16785, 5093, 5103, 5106, 5283
16786, 5345, 5139, 5149, 5152
16787, 586, 585, 695, 3067
16788, 4631, 4619, 1960, 4636
16789, 5349, 5189, 5203, 5397
16790, 5247, 5287, 5335, 5233
16791, 4003, 3965, 3944, 3655
16792, 2645, 2640, 2958, 2957
16793, 1112, 168, 4126, 1232
16794, 2957, 2639, 2640, 2637
16795, 3550, 3413, 4121, 3643
16796, 3708, 3757, 3876, 3685
16797, 2800, 2817, 2705, 3071
16798, 374, 5730, 5718, 5755
16799, 2640, 2956, 2957, 2637
16800, 3073, 688, 546, 2703
16801, 3736, 3919, 3969, 3979
16802, 4680, 4679, 4702, 5694
16803, 3863, 3862, 3847, 3852
16804, 3066, 2821, 637, 960
16805, 3246, 3217, 3081, 981
16806, 3221, 3093, 3219, 3224
16807, 5238, 284, 5277, 1737
16808, 3061, 636, 961, 2819
16809, 2820, 2818, 634, 963
16810, 2641, 2959, 2954, 2664
16811, 3887, 3974, 3889, 3673
16812, 4863, 5585, 5553, 5685
16813, 3991, 3734, 3758, 3940
16814, 2821, 636, 961, 3066
16815, 3070, 627, 3, 2542
16816, 963, 2818, 634, 3069
16817, 5358, 5379, 5378, 5150
16818, 5317, 5316, 5104, 5296
16819, 3841, 4041, 4047, 3838
16820, 2832, 628, 969, 2830
16821, 4610, 4496, 4616, 4493
16822, 960, 2823, 637, 3060
16823, 4023, 3798, 4024, 4169
16824, 4939, 2404, 529, 5690
16825, 3903, 3955, 3980, 3770
16826, 723, 92, 3166, 5725
16827, 5205, 5228, 5354, 5191
16828, 5235, 5249, 5272, 5292
16829, 5557, 2199, 4962, 5552
16830, 5556, 2133, 5555, 5710
16831, 4135, 4139, 4079, 4076
16832, 4064, 4194, 4200, 4067
16833, 3068, 593, 630, 3062
16834, 3561, 3018, 3496, 3307
16835, 2185, 4929, 5723, 5745
16836, 2637, 2954, 2955, 2641
16837, 5475, 5249, 5299, 5476
16838, 5361, 5474, 5477, 5205
16839, 3058, 966, 631, 2824
16840, 5152, 5149, 5345, 4736
16841, 4735, 5106, 5103, 5283
16842, 3691, 3690, 3925, 3914
16843, 2821, 2823, 637, 960
16844, 4882, 5504, 4870, 4878
16845, 1827, 4528, 4518, 5705
16846, 702, 593, 592, 3068
16847, 631, 2826, 966, 3068
16848, 2954, 2633, 2955, 2641
16849, 5417, 2414, 5359, 2332
16850, 2385, 5297, 2311, 5416
16851, 2311, 5314, 5297, 2385
16852, 5376, 5359, 2414, 2332
16853, 3915, 3926, 3691, 3735
16854, 636, 961, 2819, 2821
16855, 3934, 3985, 3994, 3735
16856, 2433, 5488, 5490, 5682
16857, 5379, 5431, 5437, 5150
16858, 5430, 5104, 5317, 5436
16859, 5228, 5354, 5477, 5205
16860, 5249, 5272, 5292, 5476
16861, 5495, 5499, 5519, 4966
16862, 3881, 3959, 3692, 3895
16863, 3897, 3917, 3669, 3672
16864, 4442, 4426, 4566, 5738
16865, 293, 4298, 294, 5702
16866, 2144, 527, 2313, 2338
16867, 2143, 2314, 387, 2339
16868, 2313, 527, 2043, 2338
16869, 2827, 3057, 640, 2807
16870, 966, 2826, 631, 2824
16871, 3070, 3, 597, 2542
16872, 3621, 3005, 3009, 3587
16873, 5317, 5095, 5282, 5295
16874, 5379, 5357, 5344, 5141
16875, 558, 604, 543, 2696
16876, 2826, 2802, 630, 3068
16877, 169, 1242, 3647, 5689
16878, 3943, 3977, 3663, 3985
16879, 2830, 628, 969, 3065
16880, 1641, 306, 1656, 5742
16881, 4709, 4685, 4591, 4581
16882, 4379, 4343, 4482, 5742
16883, 4793, 4794, 4803, 5724
16884, 3923, 3659, 3943, 3907
16885, 640, 957, 3057, 2827
16886, 3114, 3247, 3086, 3082
16887, 589, 698, 3069, 3061
16888, 957, 640, 3064, 2829
16889, 1871, 1945, 4709, 5706
16890, 4564, 4427, 4439, 5707
16891, 5381, 5357, 5453, 5145
16892, 5099, 5319, 5295, 5452
16893, 3073, 627, 3055, 2832
16894, 5550, 4808, 5561, 5721
16895, 3121, 3104, 3099, 3254
16896, 3850, 4182, 4183, 3864
16897, 3058, 631, 2812, 2824
16898, 284, 1812, 5277, 1737
16899, 5339, 274, 1652, 1597
16900, 965, 3058, 632, 2824
16901, 700, 591, 590, 3063
16902, 5334, 5254, 5242, 5250
16903, 5198, 5396, 5206, 5210
16904, 2828, 2803, 629, 3062
16905, 2113, 5581, 5556, 5710
16906, 4165, 4189, 1419, 4164
16907, 4644, 4623, 4627, 4692
16908, 5147, 5141, 5379, 5143
16909, 5101, 5095, 5097, 5317
16910, 1006, 3204, 1005, 3143
16911, 4347, 4329, 4368, 5704
16912, 637, 2821, 3066, 2810
16913, 2827, 640, 957, 2829
16914, 5277, 5271, 5238, 1738
16915, 5227, 5194, 1653, 5339
16916, 3761, 3704, 3989, 1357
16917, 3690, 3899, 3675, 3692
16918, 5155, 5384, 5342, 4741
16919, 4742, 5109, 5322, 5280
16920, 3902, 3897, 3667, 3896
16921, 3909, 3665, 3668, 3675
16922, 4445, 4432, 4415, 5707
16923, 5564, 2117, 4867, 5562
16924, 3864, 3850, 3848, 5750
16925, 4354, 4353, 1686, 1705
16926, 4665, 5695, 5691, 5736
16927, 584, 694, 585, 3057
16928, 3977, 3665, 3668, 3930
16929, 2819, 3061, 636, 2814
16930, 1450, 4146, 4126, 1292
16931, 4958, 2199, 459, 5690
16932, 2822, 965, 632, 2824
16933, 3063, 965, 632, 2822
16934, 2982, 2941, 2634, 2981
16935, 2820, 633, 2822, 964
16936, 3886, 3888, 3969, 3748
16937, 3889, 3723, 3896, 3890
16938, 633, 3063, 2822, 964
16939, 3700, 3925, 3691, 3970
16940, 1826, 4456, 4455, 1784
16941, 2830, 2803, 629, 2828
16942, 2829, 2827, 640, 2807
16943, 3063, 632, 2811, 2822
16944, 3925, 3691, 3927, 3995
16945, 5218, 5352, 5391, 5196
16946, 4965, 4964, 2201, 5724
16947, 5189, 1598, 1654, 5704
16948, 4189, 4068, 1419, 4164
16949, 627, 2832, 2816, 2801
16950, 4518, 4543, 4533, 5694
16951, 2173, 4940, 4939, 5690
16952, 590, 699, 3059, 3069
16953, 5471, 2183, 2432, 5723
16954, 5470, 2433, 2104, 5722
16955, 3915, 3668, 3977, 3735
16956, 628, 2832, 2805, 2830
16957, 4180, 3845, 3846, 3861
16958, 4585, 4602, 1861, 5734
16959, 5502, 5508, 4965, 4795
16960, 4663, 5686, 4666, 5754
16961, 3777, 3698, 3988, 3996
16962, 4500, 4705, 4504, 5732
16963, 4342, 4369, 4491, 5704
16964, 1028, 3932, 3656, 3780
16965, 1021, 5716, 201, 5750
16966, 3878, 3695, 116, 3910
16967, 5292, 5479, 5243, 5315
16968, 5199, 5354, 5377, 5478
16969, 4540, 4539, 4536, 5736
16970, 3897, 3669, 3917, 3904
16971, 4683, 5753, 4655, 5759
16972, 4620, 4635, 1925, 1941
16973, 4666, 5686, 4661, 5727
16974, 1598, 4368, 1597, 5704
16975, 4458, 5532, 1783, 5681
16976, 2830, 2805, 628, 3065
16977, 5494, 5682, 4802, 5721
16978, 248, 1652, 247, 5712
16979, 1737, 259, 258, 5713
16980, 5291, 5251, 5253, 5326
16981, 5388, 5353, 5207, 5209
16982, 630, 2802, 2826, 2828
16983, 2952, 2633, 2955, 2954
16984, 4849, 4851, 5337, 5308
16985, 2692, 558, 543, 2696
16986, 3977, 3663, 3665, 3930
16987, 967, 2826, 630, 3068
16988, 4003, 3965, 1295, 3966
16989, 3944, 3906, 3655, 3922
16990, 4797, 4805, 4806, 5724
16991, 3812, 1179, 3576, 3269
16992, 1006, 3204, 1134, 109
16993, 4870, 5578, 5569, 4882
16994, 1641, 1656, 306, 5744
16995, 4177, 3863, 4184, 3849
16996, 5048, 2215, 4991, 2216
16997, 5024, 2079, 2078, 4827
16998, 2228, 5013, 2227, 5057
16999, 5104, 5097, 5316, 5317
17000, 5150, 5379, 5378, 5143
17001, 5448, 5206, 5444, 2355
17002, 5445, 5449, 2371, 5250
17003, 5199, 5228, 5354, 5478
17004, 5272, 5479, 5243, 5292
17005, 3980, 3932, 4006, 3780
17006, 4910, 4923, 5577, 5570
17007, 5287, 5247, 5248, 5233
17008, 5203, 5204, 5189, 5349
17009, 3061, 588, 697, 3066
17010, 4919, 5574, 2168, 4918
17011, 3066, 2821, 636, 2810
17012, 5097, 5104, 5101, 5317
17013, 5150, 5147, 5379, 5143
17014, 2818, 2808, 634, 3069
17015, 4331, 4338, 4348, 5742
17016, 3659, 3655, 3906, 3922
17017, 5541, 5596, 5588, 5685
17018, 2826, 2812, 631, 2824
17019, 5488, 2433, 528, 5682
17020, 630, 2826, 967, 2828
17021, 704, 595, 594, 3065
17022, 3735, 3934, 3926, 3702
17023, 1624, 4300, 4298, 5711
17024, 629, 2830, 2828, 968
17025, 1705, 357, 1686, 1687
17026, 3058, 2812, 632, 2824
17027, 2961, 2982, 2639, 2957
17028, 5288, 5263, 5242, 5333
17029, 5395, 5350, 5219, 5198
17030, 2957, 2639, 2961, 2960
17031, 5233, 5271, 5328, 1739
17032, 1654, 5189, 5227, 5390
17033, 2954, 2670, 2952, 2641
17034, 3791, 3798, 4166, 4024
17035, 2811, 633, 3063, 2822
17036, 1826, 368, 1785, 1784
17037, 3441, 3447, 3446, 3035
17038, 629, 2830, 968, 3065
17039, 1823, 4445, 1824, 5707
17040, 5584, 5572, 4994, 4831
17041, 5571, 5015, 4830, 5583
17042, 3095, 3092, 3086, 3221
17043, 3060, 2823, 637, 2806
17044, 22, 2939, 905, 643
17045, 3820, 3817, 3266, 3127
17046, 5356, 5460, 5464, 5148
17047, 5461, 5102, 5294, 5465
17048, 5209, 310, 1606, 4313
17049, 336, 4397, 5253, 1821
17050, 4540, 4536, 5729, 5736
17051, 3059, 2820, 634, 963
17052, 3086, 3222, 3095, 3221
17053, 3062, 629, 2828, 968
17054, 2314, 378, 387, 2339
17055, 3913, 3987, 3974, 3672
17056, 1642, 1609, 1643, 5213
17057, 5257, 1721, 1720, 1824
17058, 5251, 5249, 5236, 5299
17059, 5361, 5207, 5205, 5192
17060, 4644, 4623, 4692, 5731
17061, 2826, 631, 2802, 3068
17062, 3115, 105, 3246, 981
17063, 2828, 967, 630, 3062
17064, 2822, 632, 2811, 2824
17065, 2821, 637, 2823, 2810
17066, 5455, 5459, 5241, 5302
17067, 5458, 5364, 5454, 5197
17068, 5428, 5429, 535, 5696
17069, 4665, 5691, 4671, 5736
17070, 1022, 5700, 1385, 5716
17071, 3086, 3222, 3220, 3247
17072, 3061, 962, 635, 2819
17073, 4679, 4677, 4683, 5703
17074, 2816, 2703, 3073, 2804
17075, 2204, 5550, 5544, 5721
17076, 3652, 3734, 4004, 4009
17077, 5425, 530, 5426, 5697
17078, 5282, 5095, 5098, 5295
17079, 5144, 5344, 5357, 5141
17080, 3674, 3664, 3893, 3964
17081, 4129, 4079, 4139, 4083
17082, 4067, 4200, 4071, 4188
17083, 980, 3081, 3216, 3821
17084, 3732, 1027, 1117, 1026
17085, 1819, 5262, 4399, 5329
17086, 204, 1120, 1385, 5716
17087, 5294, 5320, 5100, 5281
17088, 5343, 5356, 5382, 5146
17089, 5443, 2411, 5379, 5357
17090, 5295, 5317, 5442, 2382
17091, 4094, 4140, 4139, 4083
17092, 4201, 4200, 4071, 4061
17093, 3930, 3973, 3665, 3964
17094, 584, 583, 693, 3064
17095, 5189, 5190, 5203, 5397
17096, 5335, 5247, 5233, 5234
17097, 2133, 5556, 400, 2069
17098, 2633, 2981, 3013, 2952
17099, 4413, 4420, 4431, 5738
17100, 2829, 640, 3064, 2815
17101, 2821, 2819, 636, 2814
17102, 2822, 2813, 633, 2820
17103, 3987, 3913, 3957, 3677
17104, 5353, 5472, 5474, 5207
17105, 5473, 5251, 5291, 5475
17106, 962, 2818, 635, 2819
17107, 3069, 2818, 635, 962
17108, 4683, 5703, 5753, 5759
17109, 4021, 4022, 3795, 3788
17110, 2432, 5471, 459, 2183
17111, 2433, 2104, 422, 5470
17112, 2185, 5723, 5373, 5745
17113, 3894, 3973, 3664, 3907
17114, 293, 5530, 4298, 5711
17115, 3061, 961, 636, 3066
17116, 4676, 4677, 5698, 5720
17117, 1231, 3020, 3019, 89
17118, 543, 2692, 2696, 2458
17119, 637, 3066, 960, 3060
17120, 2383, 5430, 5317, 5436
17121, 5437, 2412, 5431, 5379
17122, 442, 527, 2313, 2144
17123, 630, 2803, 2828, 3062
17124, 633, 632, 591, 2590
17125, 3085, 3092, 3093, 3219
17126, 3073, 546, 3, 2804
17127, 5101, 5095, 5317, 5436
17128, 5141, 5379, 5437, 5147
17129, 2818, 634, 2808, 2820
17130, 2962, 2682, 2690, 2654
17131, 5326, 336, 5253, 1821
17132, 310, 1606, 5388, 5209
17133, 5693, 5719, 4672, 5729
17134, 5342, 5356, 5383, 5148
17135, 5294, 5102, 5280, 5321
17136, 4670, 4671, 4672, 5729
17137, 4084, 4150, 4151, 1443
17138, 4161, 1426, 4072, 4162
17139, 4724, 4723, 5754, 5755
17140, 4500, 4504, 1958, 5732
17141, 4661, 4660, 4662, 5727
17142, 2830, 629, 2805, 3065
17143, 1599, 1598, 1665, 5704
17144, 4550, 4513, 4552, 5708
17145, 4724, 5754, 1963, 5755
17146, 3846, 3845, 3853, 3861
17147, 1022, 3153, 3157, 5700
17148, 3068, 966, 631, 3058
17149, 2981, 2947, 3013, 2952
17150, 3206, 105, 3246, 3115
17151, 5289, 5241, 5261, 5331
17152, 5197, 5393, 5351, 5217
17153, 5340, 5368, 5366, 5215
17154, 5269, 1759, 5244, 5327
17155, 5225, 5389, 5200, 1671
17156, 4337, 4349, 1676, 5747
17157, 4024, 3787, 3798, 4023
17158, 5560, 2060, 4797, 5592
17159, 4349, 4337, 1673, 5747
17160, 3167, 3166, 92, 5725
17161, 3980, 4006, 4019, 3699
17162, 1324, 1323, 193, 4103
17163, 5242, 5270, 5254, 5334
17164, 5396, 5198, 5226, 5210
17165, 3672, 3667, 3974, 3673
17166, 1112, 1450, 1449, 1232
17167, 3138, 3216, 3255, 3266
17168, 4019, 4006, 1030, 3699
17169, 2639, 2645, 2649, 2960
17170, 1822, 1823, 1758, 5707
17171, 4588, 4601, 4583, 5734
17172, 631, 632, 592, 3058
17173, 3892, 3723, 3968, 3730
17174, 346, 1784, 4455, 4411
17175, 5329, 1819, 5262, 5330
17176, 5392, 5391, 1604, 5218
17177, 4202, 4057, 4073, 4204
17178, 4090, 4144, 4141, 4085
17179, 5428, 2436, 534, 5696
17180, 3246, 3081, 3217, 3082
17181, 633, 2820, 3059, 964
17182, 5093, 5108, 5104, 5296
17183, 5154, 5150, 5358, 5139
17184, 4547, 4614, 4617, 4554
17185, 1811, 4447, 4450, 5733
17186, 692, 583, 582, 3056
17187, 3108, 3216, 3266, 3127
17188, 4093, 4094, 4139, 4083
17189, 4061, 4200, 4071, 4060
17190, 3656, 1118, 1028, 3780
17191, 2813, 2808, 634, 2820
17192, 5141, 5344, 5379, 5143
17193, 5282, 5097, 5095, 5317
17194, 3073, 3, 688, 3070
17195, 5468, 5472, 5362, 5195
17196, 5300, 5469, 5239, 5473
17197, 5425, 531, 2434, 5697
17198, 4784, 2312, 388, 4788
17199, 4767, 4771, 391, 2333
17200, 5287, 5441, 5445, 2399
17201, 5440, 5444, 2428, 5349
17202, 3841, 4041, 4029, 4047
17203, 1814, 5335, 1813, 5738
17204, 380, 1721, 5531, 5681
17205, 1642, 5386, 1609, 5213
17206, 4135, 4079, 4152, 4082
17207, 4067, 4070, 4194, 4163
17208, 4288, 4419, 4412, 5713
17209, 4328, 4336, 4265, 5712
17210, 957, 3064, 640, 3057
17211, 3740, 3704, 3761, 1357
17212, 583, 641, 582, 3056
17213, 3974, 3672, 3673, 3677
17214, 5015, 4830, 438, 5571
17215, 628, 627, 596, 2594
17216, 5732, 5754, 4723, 5755
17217, 3413, 4121, 3389, 3550
17218, 3692, 3675, 3693, 3898
17219, 4685, 4703, 4711, 5688
17220, 1322, 3815, 1196, 1254
17221, 1738, 5238, 5277, 1737
17222, 1652, 1653, 5194, 5339
17223, 4606, 4589, 4586, 5728
17224, 1115, 1026, 3652, 1116
17225, 3066, 587, 696, 3060
17226, 3723, 3748, 3891, 3890
17227, 1083, 1086, 1082, 133
17228, 1045, 1090, 1044, 125
17229, 5104, 5101, 5317, 5436
17230, 5147, 5379, 5437, 5150
17231, 3666, 3902, 3984, 3916
17232, 2268, 5085, 500, 5052
17233, 2288, 513, 5073, 5091
17234, 5070, 5019, 480, 2237
17235, 5043, 494, 5082, 2259
17236, 5088, 5061, 506, 2277
17237, 938, 939, 94, 5751
17238, 4182, 3844, 3845, 3859
17239, 2814, 636, 2821, 2810
17240, 633, 2811, 2813, 2822
17241, 3893, 3696, 3894, 3664
17242, 1492, 4189, 4192, 4165
17243, 4019, 120, 3903, 3757
17244, 1871, 4709, 4596, 4581
17245, 3058, 591, 701, 3063
17246, 3667, 3889, 3723, 3896
17247, 1737, 284, 259, 5268
17248, 2143, 387, 392, 2339
17249, 527, 2313, 2043, 524
17250, 3213, 3139, 3131, 3267
17251, 2820, 2813, 633, 3059
17252, 5334, 5288, 5270, 5333
17253, 5350, 5395, 5396, 5226
17254, 1607, 5388, 5192, 1672
17255, 5236, 1758, 5326, 1822
17256, 3652, 3870, 3732, 1026
17257, 5420, 5310, 5298, 5256
17258, 5372, 5212, 5422, 5360
17259, 5219, 5454, 5364, 5197
17260, 5241, 5263, 5455, 5302
17261, 3649, 3670, 3874, 1293
17262, 5295, 5317, 5095, 5442
17263, 5357, 5379, 5443, 5141
17264, 4401, 4403, 4402, 4467
17265, 2311, 5108, 5314, 5432
17266, 5154, 5376, 5433, 2332
17267, 5303, 5334, 5242, 5250
17268, 5396, 5206, 5365, 5198
17269, 3969, 3686, 3736, 3979
17270, 632, 3058, 965, 3063
17271, 5421, 5429, 5428, 5696
17272, 546, 3, 688, 3073
17273, 633, 634, 590, 3059
17274, 5574, 5565, 4919, 2168
17275, 2819, 635, 3061, 2814
17276, 2954, 2953, 2681, 2967
17277, 590, 634, 633, 2537
17278, 2201, 5598, 5582, 5724
17279, 5426, 5423, 5425, 5697
17280, 3674, 4018, 3952, 3920
17281, 4934, 4940, 4935, 5690
17282, 3795, 4021, 3788, 3797
17283, 3247, 3086, 3222, 3114
17284, 635, 2808, 2818, 3069
17285, 592, 632, 631, 2535
17286, 3798, 4167, 4024, 4173
17287, 5251, 5299, 5291, 5475
17288, 5361, 5353, 5474, 5207
17289, 2806, 2823, 637, 2810
17290, 2812, 2811, 632, 2824
17291, 3254, 3206, 3247, 3133
17292, 4337, 5704, 1673, 5747
17293, 2820, 634, 2813, 3059
17294, 972, 973, 974, 102
17295, 4337, 1676, 4339, 5747
17296, 1019, 3155, 1023, 5699
17297, 3092, 3147, 3249, 3137
17298, 4830, 2133, 4829, 5015
17299, 4994, 2061, 4993, 4831
17300, 4721, 4526, 1891, 1962
17301, 4551, 1835, 4522, 5735
17302, 3152, 3155, 3153, 5699
17303, 4993, 4832, 4831, 2061
17304, 5016, 4829, 2133, 5015
17305, 5075, 491, 2251, 5037
17306, 2094, 5063, 414, 4844
17307, 3896, 3984, 3968, 3660
17308, 3247, 3114, 3254, 3133
17309, 4540, 5729, 5691, 5736
17310, 3698, 3777, 3988, 3727
17311, 2816, 3073, 627, 2804
17312, 3741, 3937, 4012, 3697
17313, 3659, 3663, 3943, 3907
17314, 1895, 1904, 4625, 5758
17315, 3757, 3903, 3980, 3770
17316, 3979, 3969, 3686, 3901
17317, 4021, 3794, 4170, 4172
17318, 3093, 3232, 3126, 3219
17319, 4664, 4662, 4660, 5695
17320, 2802, 2812, 631, 2826
17321, 638, 585, 586, 3067
17322, 591, 632, 633, 3063
17323, 2432, 529, 5690, 5709
17324, 1642, 1643, 1609, 5702
17325, 4754, 5146, 5382, 4749
17326, 4750, 4753, 5100, 5320
17327, 4831, 396, 4994, 2061
17328, 4681, 4626, 4641, 5719
17329, 1643, 289, 293, 5188
17330, 3969, 3686, 3886, 3748
17331, 1817, 5332, 5261, 5331
17332, 5490, 5494, 5522, 5721
17333, 3433, 80, 914, 3015
17334, 3685, 3976, 3879, 3731
17335, 1224, 3469, 91, 5689
17336, 5340, 5377, 5480, 5208
17337, 5278, 5315, 5252, 5481
17338, 1824, 352, 5286, 5733
17339, 3897, 3669, 3667, 3672
17340, 634, 3059, 963, 3069
17341, 1720, 1824, 1721, 5733
17342, 4079, 4140, 4075, 4083
17343, 4201, 4063, 4071, 4067
17344, 2163, 4907, 4912, 5549
17345, 1720, 1719, 5260, 1824
17346, 2159, 2061, 447, 5551
17347, 4070, 4189, 4194, 4164
17348, 2651, 2681, 2990, 2684
17349, 3862, 3847, 3852, 3846
17350, 4181, 4179, 3862, 3847
17351, 628, 969, 3055, 2832
17352, 3919, 3891, 3893, 3696
17353, 3977, 3663, 3985, 3735
17354, 5103, 4739, 4735, 5283
17355, 4736, 5149, 5345, 4740
17356, 3219, 3085, 3092, 3221
17357, 5350, 5448, 5219, 5198
17358, 5449, 5263, 5242, 5288
17359, 3992, 3686, 3755, 3684
17360, 2802, 630, 2803, 2828
17361, 1862, 4602, 4583, 5734
17362, 3841, 4047, 4052, 3829
17363, 3169, 2876, 45, 724
17364, 1812, 1813, 5328, 1739
17365, 1598, 5390, 1654, 1597
17366, 5432, 5314, 2311, 2385
17367, 5376, 2414, 5433, 2332
17368, 5203, 5206, 5365, 5397
17369, 4003, 3984, 3658, 3660
17370, 3982, 3972, 3755, 3992
17371, 2681, 2990, 2684, 2944
17372, 1715, 4525, 4552, 5708
17373, 5293, 5107, 2303, 5451
17374, 5153, 5450, 5355, 2324
17375, 4044, 4052, 4038, 3843
17376, 3732, 3652, 1026, 1116
17377, 703, 594, 593, 3062
17378, 3621, 3496, 3008, 3307
17379, 3060, 586, 695, 3067
17380, 1877, 4649, 4504, 4705
17381, 1026, 1117, 3732, 1116
17382, 962, 635, 3069, 3061
17383, 3665, 3952, 3908, 3930
17384, 4636, 4619, 371, 4511
17385, 2819, 2818, 2808, 750
17386, 2818, 2808, 749, 2820
17387, 3730, 3659, 3894, 3664
17388, 3068, 630, 967, 3062
17389, 3975, 3762, 3877, 3881
17390, 4682, 5717, 4666, 5735
17391, 3223, 3221, 3249, 3137
17392, 2818, 2808, 635, 2819
17393, 1228, 3466, 3471, 1229
17394, 5277, 5298, 5310, 5256
17395, 5360, 5372, 5212, 5339
17396, 2113, 5488, 528, 5682
17397, 636, 587, 3066, 2620
17398, 5550, 5576, 4799, 5721
17399, 2178, 5505, 5503, 4922
17400, 4796, 4793, 4803, 5724
17401, 2814, 2819, 2808, 750
17402, 2813, 749, 2808, 2820
17403, 2807, 640, 2829, 2815
17404, 629, 2805, 2803, 2830
17405, 4399, 1761, 4398, 5262
17406, 4315, 4316, 5218, 1669
17407, 3468, 1240, 1242, 1243
17408, 3915, 3691, 3926, 3925
17409, 1653, 5227, 5339, 1597
17410, 5271, 5277, 1812, 1738
17411, 5215, 5188, 5340, 5208
17412, 5252, 5259, 5232, 5278
17413, 4095, 1432, 4090, 4085
17414, 3915, 3985, 3926, 3735
17415, 3753, 3647, 169, 1242
17416, 3942, 3652, 4004, 4009
17417, 4661, 5686, 5708, 5727
17418, 234, 4127, 1480, 4149
17419, 237, 4185, 4160, 1498
17420, 3553, 3311, 3552, 3551
17421, 3943, 3663, 3973, 3907
17422, 392, 387, 378, 2339
17423, 442, 527, 524, 2313
17424, 3119, 3232, 3094, 3126
17425, 3726, 3957, 3983, 3677
17426, 2437, 2436, 535, 5696
17427, 968, 3062, 629, 3065
17428, 4644, 4692, 4657, 5731
17429, 4021, 3788, 3797, 3789
17430, 4648, 4678, 5731, 5741
17431, 2435, 530, 2434, 5697
17432, 4612, 4609, 1943, 5687
17433, 4519, 4553, 4546, 4618
17434, 3896, 3723, 3968, 3890
17435, 3468, 3469, 91, 1224
17436, 5509, 4963, 4805, 5499
17437, 636, 588, 587, 2620
17438, 3665, 3663, 3973, 3930
17439, 3068, 592, 702, 3058
17440, 5377, 5208, 5199, 5478
17441, 5479, 5252, 5243, 5315
17442, 3255, 3108, 3216, 3138
17443, 558, 543, 604, 2455
17444, 2821, 751, 2814, 2810
17445, 748, 2813, 2811, 2822
17446, 4965, 5576, 4967, 4795
17447, 5692, 5728, 4694, 5753
17448, 3249, 3105, 3091, 3137
17449, 1482, 1586, 4149, 5696
17450, 1494, 4160, 1577, 5697
17451, 2819, 2808, 635, 2814
17452, 2819, 2821, 751, 2814
17453, 2822, 748, 2813, 2820
17454, 5198, 5350, 5396, 5226
17455, 5270, 5242, 5288, 5334
17456, 4832, 2243, 4993, 4831
17457, 5015, 5016, 4829, 2098
17458, 5015, 4829, 4830, 2087
17459, 2244, 4994, 4993, 4831
17460, 4865, 2122, 5506, 5504
17461, 3897, 3974, 3917, 3672
17462, 3457, 3464, 91, 931
17463, 3699, 3980, 3780, 3770
17464, 5458, 5351, 5364, 5197
17465, 5289, 5241, 5459, 5302
17466, 4969, 4972, 2204, 5685
17467, 376, 5536, 5530, 5711
17468, 1025, 1024, 1114, 3939
17469, 5208, 5377, 5480, 5478
17470, 5479, 5252, 5315, 5481
17471, 5095, 5099, 5096, 5318
17472, 5145, 5142, 5380, 5141
17473, 76, 3148, 882, 42
17474, 1, 543, 604, 2696
17475, 3467, 89, 3019, 916
17476, 4970, 4858, 4972, 5685
17477, 384, 387, 392, 2143
17478, 527, 393, 524, 2043
17479, 5458, 5454, 5364, 2425
17480, 2396, 5459, 5455, 5302
17481, 3063, 633, 3059, 964
17482, 4535, 4513, 4539, 5695
17483, 5463, 5466, 5363, 5196
17484, 5240, 5462, 5467, 5301
17485, 5503, 4923, 4910, 5501
17486, 4317, 4315, 5217, 1668
17487, 1762, 4400, 4398, 5261
17488, 4566, 4442, 1921, 4426
17489, 4805, 4796, 4806, 5724
17490, 5142, 5380, 5381, 5145
17491, 5318, 5099, 5096, 5319
17492, 2823, 2806, 752, 2810
17493, 2811, 2812, 747, 2824
17494, 4533, 4545, 4520, 5698
17495, 3227, 3225, 3097, 3244
17496, 5426, 5214, 5423, 5697
17497, 4135, 4152, 4153, 4082
17498, 4164, 4194, 4070, 4163
17499, 5421, 5258, 5429, 5696
17500, 3932, 3955, 3933, 3733
17501, 596, 627, 628, 3055
17502, 5379, 5358, 5431, 5150
17503, 5296, 5104, 5317, 5430
17504, 5449, 2398, 5303, 5445
17505, 5365, 5444, 2427, 5448
17506, 4870, 5523, 5504, 4882
17507, 3799, 4025, 4020, 3792
17508, 3955, 3903, 3708, 3770
17509, 1263, 4121, 3413, 3643
17510, 5444, 2356, 5203, 5440
17511, 5441, 5445, 2372, 5247
17512, 5535, 5536, 5524, 5711
17513, 3220, 3217, 3081, 3082
17514, 752, 2821, 2823, 2810
17515, 2822, 2811, 747, 2824
17516, 4729, 4744, 1996, 5313
17517, 4743, 1974, 5375, 4730
17518, 3920, 3931, 3921, 3725
17519, 1665, 4491, 1599, 5704
17520, 4319, 4325, 4301, 5747
17521, 2177, 5510, 5505, 4921
17522, 595, 705, 3055, 3065
17523, 5362, 5472, 5353, 5195
17524, 5291, 5300, 5239, 5473
17525, 4579, 4576, 1924, 4611
17526, 1029, 1113, 45, 5725
17527, 4675, 4694, 4677, 5692
17528, 4022, 3795, 3788, 3787
17529, 2825, 2809, 753, 2806
17530, 746, 2812, 2802, 2826
17531, 4050, 4033, 3842, 4034
17532, 5283, 5103, 4739, 5316
17533, 5378, 5345, 5149, 4740
17534, 5511, 4866, 2123, 5506
17535, 1624, 5535, 291, 4300
17536, 2952, 2670, 2954, 2953
17537, 3126, 3085, 3219, 3081
17538, 5262, 4399, 1761, 5330
17539, 4316, 5392, 5218, 1669
17540, 4161, 4072, 1425, 4159
17541, 4148, 4150, 4084, 1442
17542, 5197, 5351, 5394, 5217
17543, 5289, 5261, 5241, 5332
17544, 4670, 5719, 4681, 5737
17545, 4515, 5706, 5688, 5749
17546, 5477, 5354, 5228, 5478
17547, 5292, 5272, 5479, 5476
17548, 1654, 5189, 5390, 1598
17549, 5233, 5328, 1813, 1739
17550, 3224, 3147, 3123, 3249
17551, 3641, 3526, 3381, 3567
17552, 3732, 3870, 1027, 1026
17553, 3218, 3126, 3219, 3217
17554, 855, 760, 1037, 854
17555, 789, 1075, 826, 825
17556, 795, 821, 820, 1080
17557, 850, 766, 1042, 849
17558, 2955, 2956, 2954, 2637
17559, 4300, 5702, 4298, 5711
17560, 3984, 3902, 3666, 3660
17561, 5151, 5382, 5356, 5146
17562, 5100, 5105, 5320, 5294
17563, 4703, 4709, 1945, 5706
17564, 4881, 4879, 5515, 2135
17565, 3057, 694, 585, 3067
17566, 3934, 3928, 3926, 3702
17567, 2823, 2825, 753, 2806
17568, 2826, 746, 2812, 2824
17569, 4546, 4555, 4618, 4521
17570, 4153, 1476, 4135, 4130
17571, 5330, 5240, 5262, 5290
17572, 5218, 5392, 5352, 5196
17573, 3939, 1114, 1025, 1115
17574, 2809, 2827, 754, 2807
17575, 745, 2802, 2803, 2828
17576, 3254, 3121, 3104, 3267
17577, 2984, 2959, 2661, 2970
17578, 2801, 628, 2832, 2805
17579, 3854, 3853, 3845, 3860
17580, 5334, 5242, 5288, 5303
17581, 5350, 5396, 5365, 5198
17582, 4614, 4607, 4617, 4554
17583, 4079, 4129, 4140, 4083
17584, 4071, 4201, 4067, 4188
17585, 2113, 5682, 528, 5685
17586, 5464, 5383, 5356, 5148
17587, 5321, 5294, 5102, 5465
17588, 3213, 3139, 984, 3131
17589, 5271, 1812, 1739, 1738
17590, 5227, 1653, 1654, 1597
17591, 2633, 2952, 2670, 2641
17592, 5488, 528, 5489, 5710
17593, 4153, 4154, 1477, 4130
17594, 3898, 3675, 3693, 3724
17595, 5240, 5265, 5244, 5290
17596, 4592, 5746, 4580, 5757
17597, 1820, 5244, 1759, 5327
17598, 5389, 1605, 5200, 1671
17599, 3668, 3690, 3691, 3914
17600, 4682, 4666, 4696, 5735
17601, 3674, 4018, 3724, 3952
17602, 3666, 3669, 3667, 3902
17603, 2645, 2639, 2957, 2960
17604, 2645, 2646, 2962, 2958
17605, 4012, 3937, 3986, 3697
17606, 4189, 4070, 4068, 4164
17607, 1721, 4455, 1720, 5681
17608, 3582, 3584, 1191, 1273
17609, 3755, 3708, 3982, 3684
17610, 5469, 5239, 5265, 5300
17611, 5221, 5468, 5362, 5195
17612, 5449, 2397, 5455, 5288
17613, 5350, 5448, 2426, 5454
17614, 3758, 3921, 3940, 3725
17615, 4581, 1872, 1871, 5706
17616, 4084, 4079, 4140, 4075
17617, 4063, 4201, 4072, 4067
17618, 2829, 755, 2807, 2815
17619, 744, 2803, 2805, 2830
17620, 5465, 5461, 5102, 2305
17621, 2326, 5464, 5460, 5148
17622, 4580, 4593, 4707, 5746
17623, 2646, 2682, 2645, 2962
17624, 333, 1901, 1828, 5731
17625, 1818, 4398, 1761, 5330
17626, 5596, 5553, 5585, 5685
17627, 4194, 4189, 4070, 4199
17628, 1420, 215, 4215, 5683
17629, 224, 1451, 4241, 5684
17630, 4829, 2133, 399, 5016
17631, 5520, 2133, 2069, 5710
17632, 754, 2825, 2827, 2809
17633, 2802, 745, 2826, 2828
17634, 2684, 895, 663, 2944
17635, 2957, 2634, 2639, 2637
17636, 4744, 4735, 1995, 5313
17637, 4736, 1973, 5375, 4743
17638, 3206, 3246, 105, 3264
17639, 4708, 4650, 1943, 5687
17640, 2646, 2682, 2962, 2654
17641, 1925, 4579, 1924, 4611
17642, 3063, 590, 700, 3059
17643, 5572, 396, 447, 4994
17644, 3665, 3973, 3664, 3964
17645, 2312, 4729, 388, 4788
17646, 2333, 4771, 391, 4730
17647, 4186, 4198, 1422, 5683
17648, 5440, 5230, 5203, 5349
17649, 5274, 5287, 5441, 5247
17650, 5439, 5287, 5298, 2400
17651, 5438, 2429, 5360, 5349
17652, 5316, 5103, 5104, 5296
17653, 5378, 5358, 5150, 5149
17654, 3988, 3693, 3698, 3727
17655, 4866, 2123, 4867, 5511
17656, 4553, 4519, 4615, 4618
17657, 3780, 3773, 4006, 3699
17658, 2177, 4920, 5510, 4921
17659, 327, 1766, 4561, 4466
17660, 1674, 299, 4479, 4364
17661, 3846, 3853, 3852, 3861
17662, 641, 583, 3064, 3056
17663, 3969, 3888, 3891, 3748
17664, 3976, 3956, 3879, 3731
17665, 4396, 5254, 5270, 5334
17666, 5210, 5226, 5396, 4314
17667, 3663, 3659, 3664, 3907
17668, 4848, 1998, 4755, 4851
17669, 3957, 3778, 4011, 3714
17670, 5531, 380, 356, 1721
17671, 4681, 4652, 4626, 5719
17672, 3674, 3893, 3736, 3920
17673, 3708, 3955, 3755, 3982
17674, 5445, 5303, 5287, 2399
17675, 5349, 5444, 2428, 5365
17676, 3152, 3153, 1021, 5716
17677, 4545, 4544, 4520, 5698
17678, 3792, 3799, 1308, 3790
17679, 5204, 5227, 5189, 5390
17680, 5328, 5248, 5271, 5233
17681, 4555, 4618, 4617, 4613
17682, 529, 2404, 2432, 5690
17683, 1710, 1845, 4606, 5728
17684, 4607, 4614, 4547, 4554
17685, 5499, 4798, 5519, 4966
17686, 3907, 3659, 3906, 3922
17687, 3055, 969, 628, 3065
17688, 3848, 3844, 3850, 3864
17689, 4684, 5703, 4683, 5759
17690, 4723, 4725, 1962, 5754
17691, 4638, 4632, 4668, 4631
17692, 3662, 3994, 3943, 3985
17693, 242, 1529, 1512, 1505
17694, 4881, 5515, 5507, 2135
17695, 2633, 3013, 679, 2952
17696, 2799, 2831, 3071, 3056
17697, 3617, 3414, 3333, 3551
17698, 1419, 4192, 4189, 4165
17699, 2586, 630, 631, 3068
17700, 5318, 5098, 5095, 5295
17701, 5144, 5357, 5380, 5141
17702, 674, 2977, 2948, 901
17703, 391, 4771, 4767, 1980
17704, 4784, 388, 1981, 4788
17705, 4922, 2178, 5505, 4921
17706, 2827, 2829, 755, 2807
17707, 744, 2803, 2830, 2828
17708, 1493, 4190, 4157, 5683
17709, 5351, 2424, 5463, 5458
17710, 2395, 5462, 5459, 5289
17711, 3785, 1301, 1032, 5740
17712, 3250, 3105, 3091, 3249
17713, 4424, 5681, 4472, 5733
17714, 4656, 4599, 4658, 5718
17715, 2244, 5584, 4994, 4831
17716, 5583, 5015, 4830, 2087
17717, 1021, 118, 3722, 5716
17718, 5327, 5244, 5239, 5300
17719, 5362, 5389, 5200, 5195
17720, 5299, 5292, 5249, 5325
17721, 5387, 5361, 5354, 5205
17722, 4331, 4330, 4346, 5702
17723, 5264, 5245, 5241, 5331
17724, 5201, 5197, 5393, 5220
17725, 3662, 3994, 3985, 3735
17726, 5506, 4875, 4878, 2138
17727, 4555, 4547, 4537, 5749
17728, 5392, 5201, 5218, 1669
17729, 4665, 4697, 4671, 5691
17730, 1652, 1653, 5339, 1597
17731, 1738, 5277, 1812, 1737
17732, 4866, 4865, 2122, 5506
17733, 5146, 5382, 5343, 4754
17734, 4753, 5100, 5320, 5281
17735, 5218, 4316, 4315, 1660
17736, 4399, 4398, 1753, 5262
17737, 2957, 2955, 2634, 2637
17738, 4859, 2113, 528, 5685
17739, 3222, 3096, 3226, 3114
17740, 5459, 2396, 5289, 5302
17741, 5458, 5364, 5351, 2425
17742, 693, 584, 3064, 3057
17743, 5302, 5241, 5246, 5332
17744, 5394, 5364, 5197, 5202
17745, 3959, 3692, 3762, 3881
17746, 4640, 4622, 4651, 5735
17747, 5446, 5293, 2303, 5451
17748, 5450, 5447, 5355, 2324
17749, 3652, 3870, 1026, 3942
17750, 5581, 5561, 5556, 5682
17751, 3064, 583, 692, 3056
17752, 4393, 4389, 4395, 5739
17753, 5263, 5241, 5246, 5302
17754, 5197, 5364, 5219, 5202
17755, 5313, 1996, 4729, 5284
17756, 1974, 5346, 5375, 4730
17757, 5207, 5353, 5195, 5209
17758, 5253, 5239, 5251, 5291
17759, 643, 2939, 2691, 644
17760, 2356, 5230, 5203, 5440
17761, 5274, 5441, 2372, 5247
17762, 3152, 3155, 5699, 5750
17763, 5588, 4858, 4970, 5685
17764, 3551, 3550, 3389, 3491
17765, 4702, 4708, 4693, 5694
17766, 638, 586, 3060, 3067
17767, 5244, 5239, 5269, 5327
17768, 5389, 5200, 5195, 5225
17769, 1019, 115, 3857, 3155
17770, 4032, 4047, 4033, 3829
17771, 3746, 3934, 3928, 3935
17772, 2952, 2633, 2954, 2641
17773, 4878, 5504, 5506, 2138
17774, 4802, 5682, 4808, 5721
17775, 3673, 3887, 3678, 3748
17776, 1600, 5396, 5395, 5226
17777, 5270, 5334, 5333, 1815
17778, 756, 2799, 2815, 2831
17779, 743, 2801, 2832, 2805
17780, 3220, 3086, 3085, 3221
17781, 4121, 1469, 3550, 3643
17782, 3464, 3461, 1224, 5689
17783, 627, 3055, 2832, 2801
17784, 4617, 4618, 4555, 4521
17785, 3663, 3977, 3665, 3668
17786, 4584, 4655, 5753, 5759
17787, 248, 270, 5231, 5224
17788, 259, 288, 5268, 5275
17789, 3152, 5716, 1021, 5750
17790, 4620, 1941, 1925, 5705
17791, 2069, 4808, 4802, 5682
17792, 3268, 3393, 3430, 3621
17793, 2832, 3055, 628, 2801
17794, 2696, 1, 543, 2458
17795, 3888, 3748, 3723, 3890
17796, 3055, 970, 3073, 2832
17797, 4862, 4863, 4861, 5685
17798, 730, 731, 2913, 5700
17799, 5265, 5244, 5329, 5300
17800, 5200, 5391, 5362, 5221
17801, 2977, 674, 673, 901
17802, 4315, 5201, 5217, 1668
17803, 5245, 1762, 4398, 5261
17804, 5452, 2381, 5295, 5442
17805, 5443, 5453, 2410, 5357
17806, 2829, 3064, 641, 2815
17807, 3968, 3906, 3892, 3730
17808, 4400, 1754, 4398, 5261
17809, 1661, 4315, 5217, 4317
17810, 5417, 2415, 5368, 5359
17811, 3726, 3714, 3957, 3677
17812, 3675, 3665, 3724, 3908
17813, 4585, 4698, 4588, 5734
17814, 5240, 5264, 5462, 5301
17815, 5220, 5463, 5363, 5196
17816, 3062, 704, 594, 3065
17817, 3457, 3451, 3043, 1225
17818, 866, 69, 1108, 1096
17819, 4315, 5218, 5201, 1669
17820, 4312, 4306, 4310, 5744
17821, 1111, 1091, 98, 134
17822, 1121, 1108, 145, 139
17823, 3921, 3736, 3919, 3920
17824, 2815, 641, 2829, 2831
17825, 4733, 4849, 5337, 5308
17826, 3124, 3129, 3227, 3103
17827, 3843, 3827, 4052, 3832
17828, 3544, 3595, 3641, 3381
17829, 5551, 2173, 455, 5558
17830, 4652, 5719, 4674, 5758
17831, 1625, 4330, 4382, 5702
17832, 5449, 2398, 5288, 5303
17833, 2427, 5350, 5365, 5448
17834, 4402, 1795, 4401, 4467
17835, 4319, 4365, 4318, 1675
17836, 5096, 5099, 5094, 5319
17837, 5381, 5142, 5145, 5140
17838, 4655, 4684, 4683, 5759
17839, 4705, 5732, 1878, 5746
17840, 2061, 396, 447, 5551
17841, 119, 4006, 3773, 3710
17842, 2650, 2645, 2682, 2962
17843, 5317, 5296, 5430, 2383
17844, 5358, 5431, 2412, 5379
17845, 2176, 5514, 5510, 4920
17846, 5535, 5524, 4332, 5711
17847, 2954, 2953, 2641, 2681
17848, 4656, 4592, 4599, 5718
17849, 3152, 3153, 5716, 5750
17850, 4672, 4681, 4670, 5719
17851, 4867, 2124, 5515, 5511
17852, 4171, 3796, 4023, 4169
17853, 4086, 4148, 4084, 1442
17854, 4072, 4074, 1425, 4159
17855, 756, 2815, 2829, 2831
17856, 2832, 743, 2805, 2830
17857, 3071, 2831, 2817, 955
17858, 5302, 5455, 2397, 5288
17859, 2426, 5364, 5350, 5454
17860, 5514, 2176, 4919, 4920
17861, 2302, 5322, 5280, 5293
17862, 5384, 5342, 5355, 2323
17863, 5209, 5388, 310, 1672
17864, 5253, 1758, 336, 5326
17865, 5393, 5217, 5201, 1668
17866, 5261, 5245, 1762, 5331
17867, 5201, 5363, 5392, 5196
17868, 5330, 5245, 5240, 5301
17869, 5551, 2061, 5568, 5709
17870, 2124, 4864, 4867, 5515
17871, 5576, 2204, 4967, 5721
17872, 3829, 4052, 3841, 3832
17873, 4591, 5688, 4685, 5759
17874, 2948, 675, 674, 902
17875, 4500, 1877, 4504, 4705
17876, 3217, 3220, 3246, 3082
17877, 5293, 5321, 5107, 5451
17878, 5450, 5355, 5383, 5153
17879, 4033, 3833, 3842, 4034
17880, 3085, 3219, 3081, 3217
17881, 3655, 3965, 3922, 3654
17882, 4200, 4194, 4064, 4199
17883, 3086, 3092, 3085, 3221
17884, 4685, 5688, 4711, 5759
17885, 4368, 1702, 4347, 5704
17886, 3232, 3209, 3119, 3094
17887, 3894, 3696, 3730, 3664
17888, 46, 2926, 866, 5700
17889, 1896, 4643, 1904, 5758
17890, 3447, 3030, 3446, 3035
17891, 5503, 2154, 4902, 5505
17892, 2394, 5467, 5462, 5301
17893, 5466, 5363, 2423, 5463
17894, 3001, 2674, 3016, 2951
17895, 3520, 3332, 3426, 3560
17896, 3913, 3987, 3672, 3677
17897, 4315, 5393, 5201, 1668
17898, 5245, 4398, 1762, 5331
17899, 5391, 5200, 5218, 5196
17900, 3350, 3311, 3333, 3551
17901, 5331, 5264, 5245, 5301
17902, 5393, 5363, 5201, 5220
17903, 3934, 3926, 3985, 3735
17904, 2967, 2681, 2641, 2664
17905, 2957, 2956, 2955, 2637
17906, 3943, 3662, 3659, 3923
17907, 4918, 5513, 5512, 2174
17908, 1385, 1120, 4186, 1422
17909, 4153, 4154, 4130, 1452
17910, 5352, 5363, 5466, 5196
17911, 5290, 5240, 5467, 5301
17912, 5363, 5351, 2424, 5463
17913, 5289, 2395, 5462, 5301
17914, 3081, 3217, 3216, 3821
17915, 4196, 1415, 4198, 5683
17916, 3914, 3690, 3981, 3899
17917, 4688, 5746, 4656, 5755
17918, 3789, 3794, 4020, 3790
17919, 4594, 1856, 1707, 5759
17920, 1779, 4432, 4445, 5707
17921, 3891, 3919, 3736, 3696
17922, 3679, 3751, 3781, 3999
17923, 4659, 4660, 4661, 5708
17924, 2953, 2670, 2954, 2641
17925, 3136, 3258, 3244, 3144
17926, 3553, 3605, 3286, 3573
17927, 4430, 4414, 4415, 5733
17928, 4591, 4594, 4581, 5688
17929, 4593, 4656, 4592, 4599
17930, 3695, 116, 3750, 3878
17931, 3944, 3906, 3730, 3655
17932, 3815, 1322, 4099, 1254
17933, 5464, 5450, 5383, 5148
17934, 5197, 5458, 5351, 5220
17935, 5264, 5241, 5459, 5289
17936, 4126, 1450, 1112, 1232
17937, 467, 5541, 4969, 5544
17938, 2984, 2959, 2673, 2648
17939, 5422, 5423, 5211, 5372
17940, 5310, 5420, 5421, 5255
17941, 1439, 220, 4149, 1438
17942, 1431, 1416, 4160, 213
17943, 90, 919, 1217, 3010
17944, 5420, 5298, 5439, 5256
17945, 5438, 5422, 5212, 5360
17946, 1713, 1842, 4602, 5734
17947, 3931, 3941, 3940, 3725
17948, 4028, 3833, 4033, 4034
17949, 1315, 4171, 3795, 4170
17950, 4939, 529, 2173, 5690
17951, 900, 28, 673, 2941
17952, 4707, 4593, 4656, 5746
17953, 2649, 2680, 2961, 2964
17954, 1120, 1421, 4186, 1422
17955, 3124, 3227, 3223, 3097
17956, 3139, 3128, 3104, 3267
17957, 4912, 2155, 5510, 5505
17958, 91, 3043, 1225, 3457
17959, 3203, 118, 3680, 1024
17960, 2133, 4830, 4829, 2069
17961, 2061, 4994, 4993, 2159
17962, 5227, 5204, 5360, 5390
17963, 5248, 5298, 5328, 5271
17964, 3469, 1242, 91, 5689
17965, 4674, 5693, 5720, 5758
17966, 1944, 1945, 4610, 5706
17967, 3985, 3943, 3662, 3735
17968, 3682, 4011, 3738, 3714
17969, 3691, 3690, 3700, 3970
17970, 4964, 5508, 5509, 5724
17971, 2831, 2799, 641, 3056
17972, 3783, 4105, 3871, 1467
17973, 3001, 2636, 2651, 2990
17974, 4993, 2061, 446, 4832
17975, 229, 4089, 1465, 4142
17976, 4080, 4153, 4130, 1452
17977, 3999, 3781, 3679, 4002
17978, 3696, 3891, 3893, 3892
17979, 1713, 4602, 1862, 5734
17980, 3301, 3516, 3611, 3289
17981, 1830, 4642, 1894, 5741
17982, 2133, 400, 4830, 2069
17983, 2061, 447, 4994, 2159
17984, 5388, 5353, 5361, 5207
17985, 5291, 5299, 5251, 5326
17986, 4180, 1342, 4181, 3846
17987, 4692, 4648, 4678, 5731
17988, 3124, 3223, 3095, 3097
17989, 3754, 3753, 1373, 3703
17990, 5246, 5242, 5263, 5333
17991, 5198, 5219, 5395, 5202
17992, 3703, 1373, 3754, 3993
17993, 275, 4231, 1569, 5714
17994, 275, 1579, 4257, 5715
17995, 3217, 3081, 3085, 3220
17996, 3901, 3755, 3686, 3972
17997, 5141, 5144, 5344, 5143
17998, 5097, 5095, 5098, 5282
17999, 3854, 3845, 3859, 3860
18000, 3732, 3734, 4004, 3652
18001, 4897, 4894, 522, 2303
18002, 4954, 2324, 525, 4947
18003, 4006, 1028, 3773, 3780
18004, 2140, 5578, 5559, 4878
18005, 1511, 1529, 1530, 1505
18006, 584, 585, 639, 3057
18007, 5221, 5362, 5200, 5195
18008, 5244, 5265, 5239, 5300
18009, 3698, 3695, 3750, 3910
18010, 4662, 5695, 4665, 5736
18011, 5534, 4416, 5525, 5681
18012, 2957, 2958, 2645, 2960
18013, 4676, 5720, 5698, 5741
18014, 4470, 356, 355, 5733
18015, 3896, 3968, 3723, 3660
18016, 3220, 3081, 3085, 3082
18017, 1019, 3154, 3155, 5699
18018, 3399, 3498, 3500, 3383
18019, 2951, 3016, 679, 2670
18020, 3232, 3093, 3142, 3224
18021, 3223, 3095, 3222, 3221
18022, 1505, 1571, 1530, 1506
18023, 4796, 5508, 4793, 5724
18024, 2133, 399, 5520, 2069
18025, 3846, 3852, 3862, 3861
18026, 3068, 703, 593, 3062
18027, 3932, 3955, 3733, 3770
18028, 3380, 3431, 3324, 3510
18029, 3086, 3222, 3096, 3095
18030, 3714, 3987, 3957, 3677
18031, 3693, 3750, 3963, 3698
18032, 3952, 3665, 3674, 3964
18033, 1028, 1027, 3200, 3656
18034, 4390, 4388, 4389, 5739
18035, 3805, 1198, 1199, 1256
18036, 3769, 3940, 3941, 3725
18037, 1924, 4611, 4576, 5743
18038, 1233, 169, 1240, 3784
18039, 5219, 5364, 5395, 5202
18040, 5302, 5246, 5263, 5333
18041, 4515, 5687, 4537, 5749
18042, 3066, 587, 637, 2620
18043, 4141, 4140, 4095, 4075
18044, 4201, 4062, 4063, 4202
18045, 3799, 1032, 1301, 5740
18046, 1101, 3189, 1102, 1012
18047, 5412, 5423, 5369, 5697
18048, 5421, 5413, 5307, 5696
18049, 141, 1119, 1385, 1414
18050, 5363, 5201, 5220, 5196
18051, 5264, 5240, 5245, 5301
18052, 3284, 3504, 3516, 3289
18053, 3904, 4010, 3669, 3918
18054, 1118, 1028, 3200, 3656
18055, 4642, 4627, 4623, 5741
18056, 3663, 3943, 3985, 3735
18057, 5097, 5103, 5104, 5316
18058, 5143, 5378, 5150, 5149
18059, 1909, 1908, 339, 342
18060, 5365, 5349, 5203, 5397
18061, 5303, 5287, 5335, 5247
18062, 1832, 4643, 1896, 5719
18063, 3621, 3430, 3332, 3307
18064, 4133, 4142, 1449, 1232
18065, 2920, 729, 2910, 2849
18066, 4644, 4633, 4630, 4657
18067, 390, 4952, 4948, 2323
18068, 389, 2302, 4892, 4895
18069, 5496, 4967, 2204, 5721
18070, 2324, 525, 5414, 4954
18071, 2303, 522, 4897, 5415
18072, 5098, 4747, 4746, 5282
18073, 4745, 5144, 5344, 4748
18074, 4639, 4628, 4638, 5717
18075, 4121, 1469, 3389, 3550
18076, 4538, 4543, 4518, 5694
18077, 4830, 438, 2133, 5015
18078, 4723, 4725, 5754, 5756
18079, 5556, 438, 5555, 2133
18080, 5467, 2393, 5469, 5290
18081, 5352, 5466, 2422, 5468
18082, 900, 673, 2977, 2941
18083, 4754, 5343, 5146, 4751
18084, 5100, 4753, 4752, 5281
18085, 4159, 4074, 1424, 4158
18086, 2423, 5352, 5363, 5466
18087, 5467, 2394, 5290, 5301
18088, 3078, 3209, 1124, 977
18089, 4698, 4701, 4588, 5734
18090, 3780, 3980, 3932, 3770
18091, 5720, 5741, 4676, 5758
18092, 637, 586, 3060, 2534
18093, 3500, 3353, 3399, 3383
18094, 4804, 2070, 5582, 4795
18095, 5242, 2371, 5449, 5250
18096, 5448, 5206, 2355, 5198
18097, 4057, 4063, 4062, 4202
18098, 3665, 3952, 3930, 3964
18099, 5280, 5105, 5102, 5294
18100, 5356, 5342, 5151, 5148
18101, 2984, 2640, 2956, 2958
18102, 3663, 3977, 3668, 3735
18103, 4674, 4652, 4672, 5719
18104, 390, 4952, 2323, 4727
18105, 2302, 389, 4728, 4895
18106, 1962, 5686, 1963, 5754
18107, 3169, 2876, 724, 5725
18108, 3695, 116, 3910, 1021
18109, 3727, 3941, 4007, 3725
18110, 3695, 3750, 116, 3761
18111, 4306, 4305, 4307, 5744
18112, 631, 593, 2586, 3068
18113, 4627, 4625, 4645, 5741
18114, 3209, 977, 3094, 1125
18115, 2944, 895, 663, 896
18116, 4858, 4857, 4972, 5685
18117, 4149, 1482, 221, 1586
18118, 1577, 217, 4160, 1494
18119, 4672, 4673, 4674, 5693
18120, 5357, 5443, 5145, 5141
18121, 5295, 5095, 5099, 5442
18122, 2804, 627, 2816, 2801
18123, 59, 50, 799, 3052
18124, 641, 2831, 3056, 956
18125, 168, 172, 1252, 5689
18126, 529, 5485, 2173, 5709
18127, 5550, 2204, 467, 5576
18128, 3944, 3730, 3660, 3655
18129, 2120, 431, 5523, 4871
18130, 4147, 4127, 4149, 1438
18131, 4158, 1416, 4160, 4185
18132, 978, 3094, 3255, 3138
18133, 5191, 297, 1641, 5742
18134, 3099, 3098, 3226, 3100
18135, 5248, 5256, 5298, 5271
18136, 5227, 5204, 5212, 5360
18137, 3060, 2823, 638, 959
18138, 4189, 1419, 4066, 4197
18139, 5092, 5280, 5321, 5293
18140, 5342, 5383, 5355, 5138
18141, 3616, 3018, 918, 3007
18142, 92, 932, 3029, 3450
18143, 5494, 5518, 399, 2069
18144, 4960, 4933, 4935, 5690
18145, 4539, 4513, 4550, 5695
18146, 2959, 2984, 2661, 2648
18147, 3232, 3142, 3233, 3224
18148, 1416, 1424, 4074, 4158
18149, 2990, 2681, 2953, 2944
18150, 679, 2633, 2952, 2670
18151, 959, 638, 3067, 2825
18152, 3096, 3222, 3086, 3114
18153, 1871, 4610, 1945, 5706
18154, 1847, 310, 1607, 4482
18155, 4180, 4182, 1341, 3845
18156, 3203, 3680, 1114, 1024
18157, 4861, 4860, 2109, 4856
18158, 4960, 4959, 2188, 4933
18159, 4696, 4662, 4669, 5727
18160, 3806, 3809, 4097, 1255
18161, 3847, 3862, 4181, 3846
18162, 4349, 1673, 1675, 5747
18163, 3499, 1203, 3484, 3399
18164, 5098, 4747, 5282, 5318
18165, 5144, 5380, 5344, 4748
18166, 4537, 4515, 4538, 5687
18167, 4686, 4676, 5741, 5758
18168, 3336, 3353, 3502, 3383
18169, 1194, 1279, 3349, 3422
18170, 3920, 3674, 3893, 3964
18171, 3560, 3332, 3561, 3307
18172, 1464, 4088, 1460, 5684
18173, 5150, 5358, 5431, 5154
18174, 5108, 5104, 5296, 5430
18175, 4906, 2151, 5577, 5563
18176, 641, 2829, 2831, 956
18177, 3039, 3458, 3462, 898
18178, 5302, 5289, 5241, 5332
18179, 5394, 5364, 5351, 5197
18180, 1707, 1856, 304, 5759
18181, 4705, 4688, 5732, 5746
18182, 4963, 2203, 5592, 5575
18183, 5518, 5520, 399, 5710
18184, 3350, 3552, 3640, 3417
18185, 902, 2948, 675, 2988
18186, 5395, 5350, 5198, 5226
18187, 5288, 5242, 5270, 5333
18188, 2586, 593, 630, 3068
18189, 3959, 3981, 3692, 3895
18190, 5217, 5197, 5393, 5201
18191, 5245, 5261, 5241, 5331
18192, 3290, 3517, 3514, 3351
18193, 5581, 5544, 5561, 5682
18194, 3145, 3233, 3260, 3142
18195, 2829, 641, 3064, 956
18196, 4928, 4734, 4925, 5745
18197, 3504, 3500, 3288, 3274
18198, 1859, 1710, 4606, 5728
18199, 5343, 5356, 5146, 5140
18200, 5100, 5094, 5294, 5281
18201, 723, 44, 92, 5725
18202, 5341, 2186, 5373, 5745
18203, 44, 723, 2912, 5725
18204, 4076, 4139, 4079, 4083
18205, 4200, 4071, 4064, 4067
18206, 4064, 4060, 4199, 4059
18207, 4200, 4064, 4060, 4199
18208, 5494, 4802, 5522, 5721
18209, 3441, 3036, 3447, 3035
18210, 157, 3474, 1135, 1136
18211, 889, 3473, 77, 1157
18212, 3630, 3495, 1202, 3573
18213, 4670, 5736, 5729, 5737
18214, 3815, 165, 1196, 3476
18215, 3512, 3431, 3508, 3510
18216, 959, 2823, 638, 2825
18217, 4189, 4192, 1419, 4197
18218, 3701, 3927, 3691, 3995
18219, 5327, 5329, 5244, 5300
18220, 5389, 5391, 5362, 5200
18221, 2113, 5556, 5555, 5710
18222, 5539, 4387, 380, 5681
18223, 3927, 3691, 3702, 3701
18224, 4333, 4300, 5535, 5711
18225, 4829, 5015, 2098, 2087
18226, 4993, 2243, 2244, 4831
18227, 3922, 3923, 3659, 3654
18228, 4869, 2113, 5555, 5710
18229, 3147, 3093, 3092, 3224
18230, 3742, 3937, 3741, 3697
18231, 3809, 3806, 1197, 1255
18232, 3906, 3730, 3655, 3659
18233, 3874, 4115, 3649, 1293
18234, 2967, 2681, 2660, 2944
18235, 4036, 1014, 1013, 1103
18236, 3153, 3156, 3157, 5699
18237, 4519, 4553, 4615, 5743
18238, 3932, 1027, 1028, 3656
18239, 3288, 3500, 3353, 3274
18240, 3414, 1179, 3576, 3822
18241, 4904, 2155, 5510, 4912
18242, 4033, 3833, 4032, 3829
18243, 1117, 3200, 1027, 3656
18244, 1225, 1241, 91, 3468
18245, 925, 3472, 3451, 1226
18246, 1130, 3242, 3131, 983
18247, 3751, 3781, 3999, 4002
18248, 5205, 5474, 5477, 2347
18249, 5475, 2363, 5249, 5476
18250, 4586, 4700, 4590, 5728
18251, 4369, 1599, 4491, 5704
18252, 3473, 889, 1223, 3420
18253, 2681, 2967, 2660, 2664
18254, 3921, 3736, 3920, 3725
18255, 3941, 4007, 3988, 3727
18256, 1202, 3495, 3308, 3573
18257, 5556, 400, 438, 2133
18258, 5423, 5372, 5369, 5697
18259, 3311, 3617, 3333, 3551
18260, 5310, 5421, 5307, 5696
18261, 4678, 4676, 4677, 5698
18262, 5244, 1820, 5329, 5327
18263, 5391, 5389, 1605, 5200
18264, 2432, 5484, 529, 5709
18265, 638, 2823, 3060, 2806
18266, 3512, 3324, 3431, 3510
18267, 2650, 2645, 2962, 2960
18268, 3121, 3099, 3114, 3254
18269, 4676, 5698, 4678, 5741
18270, 4677, 4676, 4675, 5720
18271, 2681, 2953, 2651, 2990
18272, 5333, 4396, 5270, 1815
18273, 5226, 5395, 1600, 4314
18274, 3732, 4004, 3870, 3652
18275, 4696, 4669, 4651, 5735
18276, 4599, 4587, 4658, 5718
18277, 1924, 4620, 1925, 5705
18278, 3773, 1028, 1118, 3780
18279, 4722, 1962, 1891, 4512
18280, 4171, 1378, 4022, 4170
18281, 4180, 4181, 1363, 3861
18282, 2393, 5469, 5290, 5300
18283, 2422, 5362, 5352, 5468
18284, 5334, 5270, 4396, 1815
18285, 1600, 5396, 5226, 4314
18286, 3658, 4003, 3660, 3655
18287, 3274, 1203, 3499, 3399
18288, 3828, 4033, 3842, 4050
18289, 2641, 2953, 2670, 2681
18290, 2133, 4829, 399, 2069
18291, 3824, 105, 3206, 982
18292, 3692, 3693, 3750, 3882
18293, 4629, 4640, 4695, 5737
18294, 4007, 4018, 3724, 3725
18295, 5362, 2421, 5472, 5468
18296, 5473, 5300, 5469, 2392
18297, 3769, 3940, 3734, 4009
18298, 4095, 4140, 4094, 4075
18299, 4063, 4062, 4201, 4061
18300, 595, 628, 596, 2594
18301, 2670, 2951, 2674, 2651
18302, 3389, 3350, 3551, 3491
18303, 4101, 3804, 3806, 1197
18304, 3227, 3228, 3129, 3124
18305, 4670, 4665, 4671, 5736
18306, 5563, 4907, 5549, 5601
18307, 5249, 5235, 5236, 5325
18308, 5387, 5205, 5191, 5192
18309, 1764, 4396, 5270, 5333
18310, 4314, 5226, 5395, 1666
18311, 3131, 3104, 3121, 3267
18312, 4681, 5719, 4624, 5737
18313, 3284, 3499, 3274, 1204
18314, 4626, 4686, 4645, 5758
18315, 3219, 3093, 3232, 3224
18316, 4624, 1905, 1897, 5719
18317, 3168, 1373, 1030, 5740
18318, 1118, 3200, 1117, 3656
18319, 925, 3043, 3451, 1225
18320, 5239, 5251, 5291, 5473
18321, 5472, 5353, 5195, 5207
18322, 4130, 4135, 4153, 4082
18323, 3090, 3075, 3084, 3265
18324, 3126, 3232, 3094, 3218
18325, 1444, 4152, 4151, 4079
18326, 4067, 1427, 4163, 4162
18327, 5153, 5383, 5450, 5148
18328, 5467, 5265, 5240, 5290
18329, 5352, 5466, 5221, 5196
18330, 2541, 629, 630, 3062
18331, 5419, 2185, 4931, 5723
18332, 2106, 5418, 4854, 5722
18333, 4642, 1903, 4625, 5741
18334, 4199, 4197, 4066, 4059
18335, 3698, 3777, 3749, 3996
18336, 930, 929, 3456, 1230
18337, 4066, 4070, 4189, 4199
18338, 5533, 5534, 5525, 5681
18339, 977, 3078, 3209, 3094
18340, 3794, 3789, 1309, 3790
18341, 1706, 4530, 4515, 5688
18342, 3511, 3390, 3518, 3609
18343, 3232, 3119, 3093, 3126
18344, 984, 1131, 985, 3213
18345, 1349, 3853, 3852, 3846
18346, 3551, 3350, 3552, 3491
18347, 5500, 5507, 2134, 4883
18348, 4023, 3796, 3798, 4169
18349, 2069, 5561, 400, 4808
18350, 4709, 4591, 4596, 4581
18351, 3214, 1123, 3074, 3259
18352, 3915, 3691, 3668, 3735
18353, 5686, 5730, 1963, 5754
18354, 3331, 3561, 3332, 3307
18355, 757, 2800, 2799, 2817
18356, 742, 2804, 2816, 2801
18357, 4076, 4093, 4139, 4083
18358, 4200, 4064, 4071, 4060
18359, 2912, 724, 2876, 5725
18360, 5573, 2118, 4868, 4864
18361, 3649, 4115, 181, 1293
18362, 3795, 1311, 3788, 3787
18363, 4020, 3792, 1302, 3790
18364, 3659, 3663, 3662, 3943
18365, 5698, 5731, 4678, 5741
18366, 4864, 5573, 2118, 5564
18367, 3700, 3995, 3925, 3970
18368, 1981, 388, 4729, 4788
18369, 391, 4771, 1980, 4730
18370, 5555, 438, 5602, 2133
18371, 5380, 5142, 5144, 5141
18372, 5096, 5098, 5095, 5318
18373, 2961, 2982, 2678, 2639
18374, 5282, 5316, 5097, 5317
18375, 5379, 5344, 5378, 5143
18376, 3932, 1028, 4006, 3780
18377, 4047, 4029, 3841, 4052
18378, 1135, 3474, 3421, 1136
18379, 3621, 3393, 3430, 3307
18380, 3216, 3108, 980, 3820
18381, 3957, 3924, 3778, 3726
18382, 4011, 3682, 3987, 3714
18383, 3516, 3504, 3524, 3289
18384, 4068, 1419, 4066, 4189
18385, 4073, 4063, 4202, 4065
18386, 4075, 4141, 4077, 4085
18387, 3380, 3508, 3431, 3510
18388, 3122, 106, 3206, 982
18389, 588, 636, 2536, 2620
18390, 889, 3473, 1157, 3420
18391, 581, 582, 642, 3072
18392, 4030, 4049, 4045, 3837
18393, 631, 593, 592, 2586
18394, 4919, 5513, 4918, 2175
18395, 2598, 628, 629, 3065
18396, 4468, 1837, 1795, 4467
18397, 2640, 2956, 2958, 2957
18398, 3114, 3096, 3226, 3099
18399, 3138, 3079, 3266, 1126
18400, 985, 3087, 984, 3213
18401, 4007, 4018, 3978, 3724
18402, 4830, 400, 438, 5571
18403, 3788, 1305, 4022, 3787
18404, 2825, 2823, 638, 2806
18405, 5099, 5452, 5442, 2307
18406, 5453, 5443, 2328, 5145
18407, 3067, 3060, 638, 959
18408, 293, 5702, 1643, 5711
18409, 2825, 638, 3067, 2809
18410, 4137, 4088, 1453, 5684
18411, 5341, 4734, 2186, 5745
18412, 3220, 3222, 3086, 3221
18413, 4554, 4547, 4607, 1704
18414, 4624, 4641, 4626, 5719
18415, 2948, 674, 675, 2667
18416, 3108, 980, 3820, 3127
18417, 925, 3451, 3472, 1225
18418, 4407, 4401, 1795, 4467
18419, 5146, 5142, 5343, 5140
18420, 5094, 5100, 5096, 5281
18421, 3504, 3284, 3288, 3289
18422, 3852, 3853, 1354, 3861
18423, 641, 2815, 2799, 2831
18424, 2704, 597, 3, 2614
18425, 4725, 1962, 5754, 5756
18426, 3702, 3928, 3927, 3715
18427, 3928, 3927, 3926, 3702
18428, 1959, 4500, 1958, 5732
18429, 5487, 4801, 2062, 5486
18430, 1203, 3274, 4117, 1204
18431, 3122, 3140, 3206, 3076
18432, 3057, 585, 639, 3067
18433, 5473, 5291, 5300, 2392
18434, 5353, 2421, 5472, 5362
18435, 5334, 337, 5254, 1765
18436, 5396, 309, 1665, 5210
18437, 3085, 3219, 3217, 3220
18438, 4182, 4180, 1362, 3860
18439, 4170, 1377, 4021, 4172
18440, 3864, 3848, 3857, 1023
18441, 4003, 3658, 1295, 3655
18442, 5534, 5533, 5540, 5681
18443, 3902, 3667, 3666, 3660
18444, 1942, 4693, 4708, 5701
18445, 4395, 1748, 331, 5739
18446, 4523, 4535, 4540, 5691
18447, 1385, 4186, 4198, 1422
18448, 4048, 5716, 1330, 5760
18449, 3788, 4021, 1304, 3789
18450, 4082, 4135, 4079, 4076
18451, 4194, 4064, 4070, 4067
18452, 3732, 1027, 3870, 3656
18453, 2052, 5456, 395, 5306
18454, 2050, 5368, 394, 5457
18455, 3903, 3757, 3708, 3770
18456, 4135, 4138, 4139, 4076
18457, 5261, 5246, 5241, 5332
18458, 5202, 5197, 5394, 5217
18459, 4902, 4906, 2154, 5503
18460, 1673, 5704, 308, 5747
18461, 5516, 5486, 4801, 5709
18462, 2151, 4906, 4902, 5563
18463, 2994, 2944, 2683, 896
18464, 4298, 4300, 4299, 5702
18465, 5203, 5206, 2356, 5444
18466, 5250, 2372, 5445, 5247
18467, 977, 3209, 1124, 1125
18468, 925, 91, 3043, 1225
18469, 5579, 5583, 410, 5646
18470, 5580, 487, 5660, 5584
18471, 5246, 1764, 5270, 5333
18472, 5226, 5202, 5395, 1666
18473, 5142, 5381, 5343, 5140
18474, 5281, 5096, 5094, 5319
18475, 5518, 5488, 5489, 5710
18476, 1418, 4197, 1419, 5683
18477, 2963, 2646, 2962, 2654
18478, 1818, 5245, 4398, 5330
18479, 3777, 3749, 3996, 3939
18480, 2173, 5690, 529, 5709
18481, 1197, 4101, 3804, 1254
18482, 3284, 3516, 3290, 3289
18483, 3747, 171, 1292, 5689
18484, 3509, 3510, 3380, 3511
18485, 2973, 2962, 2690, 2654
18486, 2391, 5473, 5291, 5475
18487, 5474, 2420, 5472, 5353
18488, 4668, 5726, 4712, 5756
18489, 3843, 4038, 1331, 3832
18490, 3461, 1232, 168, 5689
18491, 3797, 4020, 4021, 3789
18492, 4964, 5598, 2201, 5724
18493, 447, 2061, 4994, 396
18494, 3504, 3288, 3284, 3274
18495, 3131, 3242, 3213, 3267
18496, 2952, 2951, 679, 2670
18497, 5262, 5245, 5240, 5330
18498, 5218, 5201, 5392, 5196
18499, 4897, 522, 4894, 2149
18500, 4954, 525, 2192, 4947
18501, 1959, 1958, 4723, 5732
18502, 2817, 2799, 757, 2831
18503, 742, 2816, 2832, 2801
18504, 3838, 4033, 4047, 3829
18505, 5204, 5203, 5230, 5349
18506, 5247, 5274, 5287, 5248
18507, 5097, 4746, 4739, 5316
18508, 4740, 5143, 5378, 4745
18509, 3216, 3108, 3081, 980
18510, 932, 3450, 92, 5751
18511, 587, 586, 637, 2534
18512, 1673, 4318, 4349, 1675
18513, 4664, 4665, 4662, 5695
18514, 4198, 141, 1385, 1414
18515, 4070, 4068, 4066, 4189
18516, 3724, 4018, 3978, 3952
18517, 3224, 3123, 3235, 3249
18518, 3915, 3977, 3668, 3909
18519, 3735, 3926, 3691, 3702
18520, 1900, 4634, 368, 5705
18521, 3484, 3498, 3499, 3399
18522, 4964, 5509, 4963, 5724
18523, 3742, 3986, 3937, 3697
18524, 4453, 1838, 1797, 4468
18525, 1677, 4351, 4366, 1717
18526, 688, 3, 546, 2704
18527, 3843, 4052, 4038, 3832
18528, 4401, 4433, 1795, 1767
18529, 3965, 1295, 3945, 3654
18530, 280, 1585, 4295, 1583
18531, 278, 1560, 4258, 1576
18532, 4667, 4663, 4666, 5754
18533, 3079, 3266, 3817, 3127
18534, 2633, 2955, 2981, 2952
18535, 3667, 3889, 3673, 3723
18536, 4544, 4531, 4516, 5692
18537, 543, 1, 604, 2455
18538, 4197, 4066, 4189, 4199
18539, 3108, 3218, 3094, 3138
18540, 171, 1250, 168, 5689
18541, 4687, 5730, 5754, 5755
18542, 633, 591, 590, 2590
18543, 1131, 3253, 985, 3213
18544, 3008, 3009, 3496, 3621
18545, 4698, 4664, 4701, 5734
18546, 3717, 3669, 3666, 3904
18547, 3923, 4001, 3662, 3654
18548, 3056, 3064, 641, 956
18549, 3028, 3434, 1219, 3025
18550, 3932, 3870, 1027, 3656
18551, 54, 63, 3173, 828
18552, 3096, 3225, 3226, 3098
18553, 3130, 3214, 3074, 3259
18554, 3066, 636, 637, 2810
18555, 3072, 21, 709, 3071
18556, 3550, 3412, 1180, 3619
18557, 2963, 2985, 2984, 2653
18558, 1025, 1114, 1024, 3201
18559, 2199, 4960, 4962, 5690
18560, 3936, 3994, 4001, 3759
18561, 632, 631, 2812, 3058
18562, 3149, 19, 3189, 3190
18563, 5584, 2244, 2243, 4831
18564, 5015, 5583, 2098, 2087
18565, 1901, 4623, 4630, 5731
18566, 2353, 5458, 5454, 5197
18567, 5459, 5241, 2369, 5455
18568, 4416, 5534, 1782, 5538
18569, 4948, 4952, 390, 2005
18570, 2956, 2954, 2637, 2673
18571, 4892, 2004, 389, 4895
18572, 3120, 3229, 3144, 3100
18573, 3844, 3848, 3855, 3864
18574, 4179, 4181, 1343, 3847
18575, 4666, 4663, 4661, 5686
18576, 4725, 4723, 1958, 5726
18577, 4356, 4304, 5537, 5526
18578, 3796, 3798, 3787, 4023
18579, 1330, 113, 5699, 5716
18580, 4868, 2125, 5507, 4864
18581, 4171, 4023, 1379, 4169
18582, 5577, 4923, 2172, 5570
18583, 631, 630, 2802, 3068
18584, 3975, 3650, 3762, 3959
18585, 4011, 3738, 3951, 3682
18586, 4130, 4154, 1477, 4132
18587, 673, 674, 3025, 901
18588, 2666, 2979, 2650, 2682
18589, 3619, 3333, 3414, 3551
18590, 1625, 4299, 4330, 5702
18591, 2126, 4868, 5507, 5500
18592, 4728, 1987, 4737, 5322
18593, 4738, 4727, 5384, 1965
18594, 3833, 4028, 3834, 4034
18595, 1135, 3474, 1259, 3421
18596, 3941, 3769, 3727, 4008
18597, 2182, 5347, 5723, 5745
18598, 4426, 1769, 4418, 5738
18599, 3108, 3255, 3218, 3138
18600, 1198, 3805, 4097, 1256
18601, 91, 1242, 169, 5689
18602, 4132, 4130, 4154, 1452
18603, 4795, 5508, 4793, 2066
18604, 5581, 5553, 5541, 5685
18605, 3499, 1203, 3274, 4117
18606, 5263, 2370, 5455, 5449
18607, 2354, 5454, 5448, 5219
18608, 5254, 4396, 337, 5334
18609, 5210, 5396, 309, 4314
18610, 5499, 4963, 4798, 4966
18611, 5389, 5362, 5353, 5195
18612, 5239, 5327, 5300, 5291
18613, 5363, 5352, 5392, 5196
18614, 5290, 5330, 5240, 5301
18615, 3970, 3914, 3690, 3981
18616, 3498, 3501, 3500, 3383
18617, 4117, 3274, 3499, 1204
18618, 3260, 3145, 3142, 3119
18619, 3271, 1187, 3270, 3562
18620, 4936, 2187, 4934, 4940
18621, 2108, 4857, 4968, 4972
18622, 1493, 4186, 4190, 5683
18623, 5191, 1641, 1608, 5742
18624, 3957, 3778, 3714, 3726
18625, 546, 3, 598, 2704
18626, 4080, 4130, 4153, 4082
18627, 3504, 3288, 3304, 3289
18628, 1070, 1088, 1069, 129
18629, 675, 676, 3027, 903
18630, 3087, 985, 3253, 3213
18631, 1705, 5706, 4515, 5749
18632, 4584, 5753, 4605, 5759
18633, 4199, 4066, 4064, 4059
18634, 1129, 106, 3206, 3122
18635, 3805, 4097, 3809, 1198
18636, 3085, 3219, 3220, 3221
18637, 4455, 1722, 4458, 5681
18638, 4010, 3669, 3717, 3904
18639, 4534, 4542, 4541, 5693
18640, 3920, 3952, 3674, 3964
18641, 2061, 4993, 446, 2159
18642, 3414, 3617, 3619, 3551
18643, 3648, 118, 186, 1289
18644, 5525, 4416, 1783, 5681
18645, 2811, 633, 632, 3063
18646, 3858, 196, 1358, 5750
18647, 4652, 4686, 4626, 5758
18648, 3290, 3514, 3284, 3351
18649, 632, 592, 591, 2535
18650, 3351, 3602, 3514, 1204
18651, 629, 595, 2598, 3065
18652, 3094, 3232, 3209, 3218
18653, 2206, 4965, 5508, 4964
18654, 2381, 5295, 5319, 5452
18655, 5357, 5453, 2410, 5381
18656, 3155, 3857, 1019, 1023
18657, 2114, 5578, 5569, 4870
18658, 4115, 3874, 3948, 1293
18659, 3806, 984, 1130, 4097
18660, 2313, 442, 2144, 5135
18661, 2339, 2042, 378, 5164
18662, 378, 5118, 2042, 2314
18663, 3142, 3233, 3260, 3232
18664, 5204, 5230, 2357, 5438
18665, 2373, 5439, 5274, 5248
18666, 3504, 3304, 3524, 3289
18667, 2878, 2869, 738, 5751
18668, 596, 627, 3055, 3070
18669, 3030, 3447, 3463, 3037
18670, 3285, 918, 3561, 3307
18671, 1117, 1027, 3732, 3656
18672, 3616, 918, 3561, 3285
18673, 3201, 1025, 1114, 1115
18674, 4728, 4737, 389, 2302
18675, 4727, 2323, 390, 4738
18676, 678, 2634, 2941, 2981
18677, 4678, 4677, 4679, 5698
18678, 629, 628, 2805, 3065
18679, 2136, 5515, 5511, 4884
18680, 3514, 3284, 3516, 3290
18681, 4663, 5730, 5686, 5754
18682, 3664, 3893, 3696, 3674
18683, 2391, 5291, 5299, 5475
18684, 5474, 2420, 5353, 5361
18685, 5516, 4801, 2061, 5709
18686, 4080, 225, 4153, 1452
18687, 4068, 214, 1419, 4164
18688, 2651, 2951, 3001, 2990
18689, 5392, 5393, 5363, 5201
18690, 5245, 5330, 5331, 5301
18691, 1963, 4723, 1962, 5754
18692, 5299, 5251, 5249, 5475
18693, 5207, 5474, 5361, 5205
18694, 3902, 3911, 3666, 3904
18695, 3242, 3206, 3254, 3076
18696, 5513, 4919, 5514, 2175
18697, 3679, 1272, 1273, 3938
18698, 2936, 2935, 883, 717
18699, 4963, 5592, 2202, 5724
18700, 2803, 630, 629, 3062
18701, 1202, 3308, 3286, 3573
18702, 3972, 3755, 3955, 3982
18703, 5219, 2353, 5454, 5197
18704, 5241, 5263, 2369, 5455
18705, 717, 42, 2932, 2710
18706, 3025, 3436, 920, 3023
18707, 3796, 3787, 4022, 4023
18708, 5559, 4875, 2140, 4878
18709, 3735, 3994, 3934, 3746
18710, 4794, 5545, 2073, 5724
18711, 1924, 4576, 368, 5743
18712, 4022, 3795, 3787, 3796
18713, 5533, 5539, 380, 5681
18714, 5111, 2313, 2043, 2314
18715, 5373, 2185, 5419, 5723
18716, 5311, 5418, 2106, 5722
18717, 3393, 3005, 83, 3008
18718, 3514, 3284, 3504, 3516
18719, 5103, 5097, 4739, 5316
18720, 5149, 5143, 5378, 4740
18721, 3696, 3723, 3892, 3730
18722, 3142, 3119, 3093, 3232
18723, 2994, 2683, 664, 896
18724, 3514, 3499, 3284, 1204
18725, 1692, 4335, 4343, 5742
18726, 2682, 2979, 2650, 2962
18727, 1623, 4333, 4299, 4300
18728, 4190, 204, 1421, 4186
18729, 2941, 2634, 2663, 2982
18730, 2809, 2825, 638, 2806
18731, 4632, 4637, 4710, 4619
18732, 3744, 3960, 3951, 3918
18733, 4333, 4299, 4300, 5702
18734, 3664, 3663, 3973, 3665
18735, 4918, 5512, 4924, 2174
18736, 4313, 5389, 5225, 1671
18737, 3274, 3500, 3353, 3399
18738, 3031, 3451, 3465, 3460
18739, 3380, 3410, 3508, 3509
18740, 3515, 1211, 3282, 3368
18741, 4026, 1382, 189, 5740
18742, 3749, 3777, 3769, 4008
18743, 3996, 3749, 3698, 3990
18744, 5171, 2144, 2339, 2338
18745, 5156, 2339, 2042, 2338
18746, 3692, 3750, 3762, 3881
18747, 2598, 595, 628, 3065
18748, 4004, 3870, 3652, 3942
18749, 4073, 4063, 4057, 4202
18750, 1364, 4181, 4179, 3862
18751, 3099, 3226, 3114, 3254
18752, 5551, 447, 2159, 5558
18753, 4416, 5538, 4424, 5681
18754, 5599, 4867, 2117, 5562
18755, 5235, 1719, 323, 5707
18756, 3227, 3225, 3223, 3097
18757, 4365, 4320, 4318, 4324
18758, 3990, 3680, 118, 1024
18759, 400, 5556, 5561, 2069
18760, 2988, 2948, 675, 2667
18761, 1225, 91, 3457, 3468
18762, 3717, 3911, 4010, 3904
18763, 3727, 3769, 3777, 4008
18764, 4500, 1878, 5732, 5746
18765, 2314, 2144, 5124, 2313
18766, 3119, 3142, 3260, 3232
18767, 4937, 455, 5542, 5543
18768, 4669, 5736, 4670, 5737
18769, 4669, 4662, 4665, 5736
18770, 522, 2303, 5446, 5415
18771, 525, 5414, 5447, 2324
18772, 958, 3067, 639, 2825
18773, 4342, 4491, 4369, 1868
18774, 3465, 3442, 3450, 932
18775, 3748, 3673, 3888, 3723
18776, 5328, 5287, 5298, 5248
18777, 5349, 5360, 5204, 5390
18778, 4118, 1206, 3303, 3520
18779, 2703, 31, 689, 2816
18780, 634, 633, 2813, 3059
18781, 1418, 4197, 4196, 4055
18782, 4043, 1336, 978, 1126
18783, 2042, 5111, 2043, 2314
18784, 3816, 3495, 3576, 3414
18785, 4514, 4540, 4536, 5729
18786, 4044, 1387, 1386, 5760
18787, 2143, 387, 2314, 5132
18788, 527, 2144, 5180, 2338
18789, 2143, 392, 5179, 2339
18790, 3504, 3499, 3500, 3274
18791, 2043, 527, 5166, 2338
18792, 2043, 5120, 524, 2313
18793, 3500, 3502, 3353, 3383
18794, 3781, 3751, 3717, 3950
18795, 3886, 3686, 3678, 3748
18796, 5395, 5198, 5202, 5226
18797, 5242, 5246, 5270, 5333
18798, 5330, 1818, 5245, 5331
18799, 5393, 5392, 1603, 5201
18800, 3462, 3458, 3039, 3443
18801, 42, 1122, 4049, 3837
18802, 1295, 3965, 3655, 3654
18803, 3091, 3228, 3249, 3137
18804, 4524, 1963, 4720, 1892
18805, 1199, 4100, 3805, 1256
18806, 5472, 5468, 2349, 5195
18807, 5469, 2365, 5239, 5473
18808, 4055, 4066, 4197, 4059
18809, 2620, 587, 637, 2534
18810, 3434, 674, 675, 902
18811, 3749, 1114, 3939, 1115
18812, 2827, 3057, 639, 958
18813, 2948, 2977, 674, 2644
18814, 4093, 4138, 4092, 4076
18815, 3984, 3658, 3666, 3916
18816, 3943, 3663, 3662, 3735
18817, 1847, 1607, 4379, 4482
18818, 4138, 4093, 4139, 4076
18819, 4646, 4658, 1935, 4587
18820, 2541, 630, 594, 3062
18821, 333, 4623, 1901, 5731
18822, 984, 1130, 3131, 983
18823, 1296, 3986, 4108, 3971
18824, 4277, 1438, 1585, 4281
18825, 1576, 4271, 1416, 4267
18826, 2143, 2144, 2339, 5171
18827, 5156, 2042, 2043, 2338
18828, 4099, 106, 1129, 983
18829, 4696, 4666, 4661, 5727
18830, 5488, 2113, 528, 5710
18831, 4455, 1721, 1722, 5681
18832, 4642, 1830, 1903, 5741
18833, 4617, 4521, 4547, 4554
18834, 1625, 4383, 1609, 5702
18835, 3940, 3734, 3758, 3725
18836, 2144, 2314, 5124, 2143
18837, 3096, 3225, 3222, 3226
18838, 4864, 2125, 5507, 5515
18839, 4101, 3806, 1130, 4097
18840, 3469, 3468, 91, 1242
18841, 3845, 3844, 3854, 3859
18842, 3383, 3399, 3498, 3415
18843, 3836, 4043, 978, 1125
18844, 5106, 2026, 4735, 5103
18845, 5149, 5152, 2033, 4736
18846, 4140, 4141, 4134, 4075
18847, 4063, 4201, 4202, 4193
18848, 3461, 1232, 5689, 5725
18849, 635, 636, 3061, 2814
18850, 1676, 1677, 4366, 1717
18851, 1838, 1796, 1797, 4468
18852, 5486, 5484, 2432, 5709
18853, 5432, 2311, 523, 2385
18854, 526, 5433, 2414, 2332
18855, 5235, 1823, 1719, 5707
18856, 3284, 3499, 3504, 3274
18857, 2435, 530, 5214, 5426
18858, 2437, 535, 5429, 5258
18859, 2686, 2979, 2652, 2650
18860, 3115, 3246, 3082, 981
18861, 2962, 2690, 2682, 2975
18862, 2967, 2953, 2681, 2944
18863, 1483, 1388, 4156, 5760
18864, 3412, 1180, 3413, 3550
18865, 4194, 4070, 4064, 4199
18866, 2958, 2962, 2645, 2960
18867, 958, 639, 2827, 2825
18868, 3431, 3410, 3508, 3380
18869, 3462, 26, 3039, 898
18870, 3097, 3102, 3227, 3244
18871, 3850, 3844, 4182, 3864
18872, 4743, 2333, 391, 4730
18873, 4744, 4729, 388, 2312
18874, 4414, 1811, 4450, 5733
18875, 4197, 4199, 1409, 4059
18876, 3066, 637, 636, 2620
18877, 5215, 5340, 5480, 5208
18878, 5252, 5259, 5278, 5481
18879, 4594, 5688, 4591, 5759
18880, 2808, 635, 634, 3069
18881, 599, 680, 18, 681
18882, 594, 593, 630, 2541
18883, 3152, 1021, 1357, 5750
18884, 3516, 3517, 3514, 3290
18885, 3907, 3923, 3659, 3922
18886, 1032, 4025, 3799, 3792
18887, 2817, 38, 708, 2705
18888, 119, 3167, 5689, 5725
18889, 1419, 4197, 4192, 5683
18890, 4653, 4691, 4700, 5728
18891, 5414, 2406, 5447, 5355
18892, 5446, 5293, 2377, 5415
18893, 3812, 3576, 1179, 3822
18894, 2825, 3067, 639, 2809
18895, 2204, 467, 4969, 5544
18896, 4610, 4612, 1944, 5749
18897, 4967, 5502, 4965, 4795
18898, 3680, 3648, 3681, 1021
18899, 1961, 4726, 4724, 5746
18900, 710, 21, 2800, 3071
18901, 4022, 3796, 4023, 4171
18902, 4084, 4151, 4079, 1443
18903, 4067, 4072, 1426, 4162
18904, 2641, 2637, 2954, 2673
18905, 3227, 3129, 3238, 3103
18906, 1298, 3782, 3671, 3946
18907, 594, 629, 2541, 3062
18908, 2067, 4795, 5517, 4799
18909, 4011, 3778, 3738, 3714
18910, 3351, 3514, 3284, 1204
18911, 2644, 3002, 2989, 2680
18912, 1720, 4456, 4455, 1723
18913, 4353, 1642, 1627, 4354
18914, 4687, 5730, 4663, 5754
18915, 289, 293, 5385, 5366
18916, 5304, 352, 356, 5323
18917, 3082, 3247, 3246, 3115
18918, 328, 4459, 1749, 1725
18919, 298, 1629, 1655, 4357
18920, 1764, 4396, 5333, 1815
18921, 4314, 5395, 1600, 1666
18922, 2964, 2993, 2979, 2686
18923, 4021, 3794, 3797, 4170
18924, 5109, 4742, 5105, 5280
18925, 5151, 5155, 5342, 4741
18926, 3708, 3755, 3955, 3770
18927, 4008, 3941, 3769, 4009
18928, 4676, 4674, 5720, 5758
18929, 4442, 4566, 1814, 5738
18930, 4112, 3424, 1274, 4114
18931, 3846, 3862, 4181, 3861
18932, 4624, 4681, 4641, 5719
18933, 3311, 3617, 3308, 3333
18934, 1403, 1576, 208, 5401
18935, 1462, 1585, 5400, 227
18936, 5105, 5100, 5094, 5294
18937, 5146, 5356, 5151, 5140
18938, 3777, 3749, 3939, 4008
18939, 4612, 4614, 4613, 5749
18940, 2059, 4800, 4798, 5575
18941, 3911, 3717, 3666, 3904
18942, 2634, 2982, 2955, 2957
18943, 1196, 1253, 3815, 3476
18944, 3990, 3996, 3749, 3939
18945, 3217, 3108, 3081, 3216
18946, 4439, 4564, 1920, 4427
18947, 3286, 3605, 3553, 3315
18948, 1973, 5375, 5345, 4736
18949, 5283, 1995, 4735, 5313
18950, 681, 599, 680, 2693
18951, 1218, 920, 3436, 3023
18952, 3696, 3736, 3891, 3748
18953, 5544, 2204, 467, 5550
18954, 3928, 3934, 3746, 3702
18955, 3042, 3039, 3033, 3458
18956, 1643, 376, 293, 5711
18957, 106, 1129, 983, 3122
18958, 2956, 2640, 2984, 2673
18959, 284, 259, 258, 1737
18960, 274, 247, 248, 1652
18961, 4622, 4651, 1953, 4695
18962, 4927, 457, 4930, 5745
18963, 3233, 3142, 3123, 3224
18964, 4622, 4640, 4651, 4695
18965, 3247, 3114, 3133, 3115
18966, 92, 3450, 931, 3440
18967, 3247, 3222, 3226, 3114
18968, 3736, 3686, 3969, 3748
18969, 3290, 3516, 3301, 3289
18970, 1342, 4180, 3845, 3846
18971, 3145, 3119, 3209, 3078
18972, 2666, 2682, 2690, 2975
18973, 4861, 4858, 4862, 5685
18974, 4387, 4458, 1722, 5681
18975, 3922, 3965, 3945, 3654
18976, 2636, 3001, 894, 2990
18977, 4003, 1295, 3658, 3966
18978, 4052, 4037, 4029, 3832
18979, 3775, 3679, 1273, 3999
18980, 3990, 1114, 3680, 1024
18981, 5585, 4862, 4858, 5685
18982, 2060, 4798, 4797, 5592
18983, 2590, 590, 633, 2537
18984, 1706, 5688, 4515, 5706
18985, 5660, 485, 5580, 5584
18986, 5579, 416, 5583, 5646
18987, 3664, 3973, 3894, 3964
18988, 3246, 3264, 3821, 981
18989, 1119, 1022, 46, 5700
18990, 2646, 2645, 2640, 2958
18991, 2984, 2677, 2985, 2970
18992, 3945, 1295, 1296, 3654
18993, 3658, 3984, 4003, 3916
18994, 4069, 211, 152, 4054
18995, 4087, 230, 149, 4081
18996, 2313, 524, 442, 5135
18997, 2339, 378, 392, 5164
18998, 5118, 378, 387, 2314
18999, 4584, 4655, 4689, 5753
19000, 3724, 3693, 4007, 3727
19001, 1450, 1449, 4133, 5684
19002, 4680, 4702, 4693, 5694
19003, 1857, 4589, 1846, 5753
19004, 5438, 5212, 5204, 5360
19005, 5256, 5298, 5439, 5248
19006, 4471, 1781, 4472, 4424
19007, 3228, 3223, 3137, 3124
19008, 1203, 4113, 3484, 3313
19009, 3842, 3833, 4033, 3828
19010, 3025, 3436, 673, 901
19011, 5443, 5437, 2329, 5141
19012, 5436, 5095, 5442, 2308
19013, 1219, 921, 3434, 3028
19014, 4140, 1456, 4141, 4095
19015, 4201, 4062, 4202, 1406
19016, 4183, 1358, 3850, 5750
19017, 1415, 1501, 1422, 5683
19018, 1464, 1449, 1534, 5684
19019, 4108, 3697, 3986, 1296
19020, 91, 1224, 3464, 3457
19021, 2134, 5507, 4881, 4883
19022, 3097, 3225, 3102, 3244
19023, 3219, 3232, 3126, 3218
19024, 4197, 1418, 4196, 5683
19025, 1292, 119, 187, 3706
19026, 2650, 2964, 2649, 2960
19027, 3781, 3751, 3950, 4002
19028, 1024, 3990, 1114, 3939
19029, 2097, 416, 5591, 4842
19030, 2254, 485, 5590, 5035
19031, 5476, 5299, 5475, 2390
19032, 5474, 5477, 2419, 5361
19033, 5480, 5208, 5478, 2345
19034, 5479, 2361, 5252, 5481
19035, 3838, 3833, 4033, 3829
19036, 4365, 1675, 4319, 5747
19037, 730, 5699, 731, 5700
19038, 3655, 3965, 3944, 3922
19039, 2977, 673, 674, 2644
19040, 3418, 3332, 3426, 3520
19041, 4668, 4704, 4712, 5726
19042, 3209, 1124, 3259, 3078
19043, 2367, 5240, 5462, 5467
19044, 5466, 5463, 2351, 5196
19045, 3724, 3665, 3674, 3952
19046, 3140, 3206, 105, 3122
19047, 5280, 5320, 5105, 5294
19048, 5342, 5382, 5356, 5151
19049, 3085, 3093, 3126, 3219
19050, 1607, 4379, 4482, 5742
19051, 3028, 1219, 920, 3025
19052, 709, 581, 21, 3072
19053, 3582, 3584, 3323, 1191
19054, 3440, 941, 5725, 5752
19055, 4607, 4616, 4495, 1704
19056, 446, 2061, 2159, 5521
19057, 4311, 4355, 4307, 4305
19058, 4390, 4394, 4388, 4457
19059, 3517, 3604, 3514, 3351
19060, 3994, 3936, 3746, 3759
19061, 1122, 4045, 3837, 975
19062, 3113, 3141, 3233, 3142
19063, 546, 598, 688, 2704
19064, 3733, 3955, 3755, 3770
19065, 895, 662, 663, 3038
19066, 4637, 4710, 4619, 4511
19067, 3670, 3948, 3874, 1293
19068, 3773, 187, 119, 3710
19069, 1292, 119, 150, 1291
19070, 3060, 638, 637, 2534
19071, 3603, 1212, 1211, 3509
19072, 3630, 3495, 3816, 1202
19073, 3910, 3963, 3698, 3996
19074, 3038, 895, 662, 3456
19075, 639, 2827, 2825, 2809
19076, 395, 2052, 5306, 2386
19077, 2143, 384, 387, 5132
19078, 442, 527, 2144, 5180
19079, 392, 2143, 5179, 384
19080, 527, 2043, 5166, 393
19081, 5120, 524, 393, 2043
19082, 3794, 4021, 4020, 4172
19083, 4624, 4641, 4681, 5737
19084, 4183, 1340, 4182, 3850
19085, 3440, 941, 96, 5725
19086, 3067, 639, 3057, 958
19087, 3855, 3857, 1351, 3864
19088, 29, 666, 682, 2698
19089, 3233, 3260, 3113, 3145
19090, 2651, 2636, 662, 2990
19091, 3114, 3247, 3082, 3115
19092, 3258, 3229, 3244, 3144
19093, 3407, 3505, 3376, 3287
19094, 5361, 5477, 2419, 5354
19095, 5476, 5292, 5299, 2390
19096, 454, 4916, 2166, 5501
19097, 3121, 3254, 3131, 3267
19098, 3206, 1129, 1128, 3824
19099, 4136, 4127, 4145, 1438
19100, 4185, 4205, 1416, 4195
19101, 4800, 2059, 5554, 5575
19102, 2955, 2981, 2634, 2633
19103, 2989, 3002, 2965, 2680
19104, 1198, 4097, 3809, 1255
19105, 2849, 2920, 46, 2846
19106, 3414, 3308, 3617, 3333
19107, 113, 4027, 1330, 3827
19108, 900, 899, 28, 2941
19109, 4927, 2182, 457, 5745
19110, 3849, 4177, 3863, 3856
19111, 1652, 4351, 4352, 1640
19112, 4454, 1737, 1736, 4453
19113, 3461, 931, 3464, 3440
19114, 4027, 4048, 1330, 4051
19115, 3762, 3975, 3959, 3881
19116, 523, 2311, 4785, 4787
19117, 4765, 526, 4769, 2332
19118, 3904, 3669, 3917, 3918
19119, 3748, 3891, 3696, 3723
19120, 3069, 635, 634, 2589
19121, 3736, 3919, 3893, 3696
19122, 3254, 3104, 3099, 3230
19123, 3272, 3270, 3537, 3271
19124, 1795, 339, 340, 4401
19125, 312, 1675, 311, 4318
19126, 119, 1030, 4006, 3710
19127, 1963, 4722, 1892, 4512
19128, 4417, 4565, 1748, 5707
19129, 3484, 1203, 3499, 4117
19130, 639, 3057, 2827, 2807
19131, 4287, 4289, 4288, 5713
19132, 4264, 4265, 4266, 5712
19133, 4858, 5588, 5596, 5685
19134, 1184, 3783, 3871, 1467
19135, 3951, 4011, 3682, 3987
19136, 709, 21, 710, 3071
19137, 3094, 977, 978, 1125
19138, 3824, 3206, 106, 982
19139, 1932, 4647, 4698, 4585
19140, 3683, 3956, 3883, 3983
19141, 3715, 3928, 3927, 3961
19142, 5566, 4905, 2160, 5565
19143, 3350, 3333, 3389, 3551
19144, 3381, 3526, 3352, 3567
19145, 3312, 3410, 3482, 3508
19146, 4446, 4431, 1769, 5738
19147, 3929, 3650, 3975, 3959
19148, 3997, 3928, 3715, 3961
19149, 5333, 5246, 1764, 1816
19150, 5202, 1601, 5395, 1666
19151, 3646, 3568, 3485, 3428
19152, 5438, 5230, 2357, 5440
19153, 2373, 5439, 5441, 5274
19154, 3287, 3407, 3505, 3503
19155, 2981, 3013, 678, 2633
19156, 1019, 731, 3154, 5699
19157, 3168, 1030, 3167, 5740
19158, 1459, 4088, 4092, 4137
19159, 4032, 4028, 3833, 4033
19160, 3254, 3121, 3131, 3076
19161, 3255, 3094, 3218, 3138
19162, 2962, 2979, 2650, 2960
19163, 4075, 4140, 4094, 4083
19164, 4201, 4071, 4063, 4061
19165, 1439, 4149, 221, 1586
19166, 1577, 217, 1431, 4160
19167, 304, 1856, 4605, 5759
19168, 4800, 4801, 2062, 5487
19169, 3090, 3239, 3084, 3091
19170, 3834, 3842, 3833, 4034
19171, 3098, 3226, 3096, 3099
19172, 4705, 4690, 4649, 5732
19173, 5096, 5281, 5318, 5319
19174, 5343, 5380, 5381, 5142
19175, 1205, 3604, 3521, 3374
19176, 4016, 3738, 3951, 4011
19177, 5420, 5439, 5298, 2401
19178, 2430, 5422, 5438, 5360
19179, 1692, 4373, 4348, 5742
19180, 2982, 2634, 2639, 2957
19181, 3250, 3091, 3228, 3249
19182, 5496, 5491, 5517, 5721
19183, 3294, 3324, 3293, 3512
19184, 3274, 3499, 3500, 3399
19185, 289, 1643, 293, 5702
19186, 226, 227, 259, 5305
19187, 208, 209, 248, 5367
19188, 3246, 3247, 3206, 3115
19189, 4138, 4135, 4130, 4082
19190, 3218, 3108, 3217, 3216
19191, 2641, 2954, 2959, 2673
19192, 3633, 3561, 3567, 3285
19193, 5535, 1624, 5530, 5711
19194, 864, 1108, 1121, 866
19195, 3983, 3683, 3956, 3726
19196, 921, 3024, 3434, 3028
19197, 4644, 4630, 4623, 5731
19198, 640, 584, 639, 3057
19199, 2535, 591, 632, 2590
19200, 664, 663, 3041, 896
19201, 5453, 5460, 5381, 5140
19202, 5461, 5319, 5094, 5452
19203, 5463, 5458, 2352, 5220
19204, 5459, 2368, 5264, 5462
19205, 5483, 5523, 431, 4871
19206, 4705, 1878, 4688, 5746
19207, 1217, 919, 1218, 3010
19208, 3617, 3311, 3553, 3551
19209, 4021, 4022, 1378, 4170
19210, 3860, 4180, 1363, 3861
19211, 5503, 4910, 2153, 5501
19212, 1593, 4292, 4289, 5713
19213, 4266, 4261, 1562, 5712
19214, 4078, 4092, 4138, 4076
19215, 4050, 3835, 3828, 4036
19216, 1961, 1865, 1866, 4592
19217, 3055, 627, 628, 2801
19218, 2683, 2660, 2944, 2994
19219, 1814, 4566, 1765, 5738
19220, 978, 3255, 3094, 1125
19221, 3286, 3617, 3553, 3573
19222, 3995, 3925, 3691, 3700
19223, 4431, 4418, 1769, 5738
19224, 4334, 4490, 1673, 5704
19225, 2414, 5417, 526, 2332
19226, 2385, 2311, 523, 5416
19227, 983, 984, 1130, 3806
19228, 4365, 4320, 4321, 1674
19229, 3923, 3662, 3659, 3654
19230, 3072, 582, 642, 3056
19231, 3261, 3265, 3250, 3089
19232, 3979, 3736, 3919, 3921
19233, 1248, 1239, 3467, 1238
19234, 4006, 3202, 119, 3773
19235, 4265, 4336, 4266, 5712
19236, 4419, 4288, 4289, 5713
19237, 4197, 1409, 4055, 4059
19238, 3911, 3666, 3719, 3916
19239, 4604, 4584, 4689, 5753
19240, 3734, 3652, 3769, 4009
19241, 3877, 3989, 3762, 3975
19242, 903, 676, 3027, 3435
19243, 4502, 1876, 4704, 5726
19244, 4138, 1459, 4092, 4137
19245, 3154, 731, 730, 3156
19246, 634, 589, 3069, 2589
19247, 5254, 337, 4396, 1765
19248, 5210, 309, 1665, 4314
19249, 3680, 186, 118, 3203
19250, 671, 551, 549, 2458
19251, 4088, 4092, 4137, 4078
19252, 1337, 1330, 5699, 5750
19253, 3679, 3737, 3938, 3719
19254, 3295, 3282, 3296, 3572
19255, 3794, 3799, 4020, 3790
19256, 3984, 3666, 3658, 3660
19257, 3856, 199, 4177, 1356
19258, 2958, 2984, 2646, 2963
19259, 4553, 4608, 4615, 5743
19260, 4500, 4501, 1878, 5746
19261, 5518, 399, 2069, 5710
19262, 1672, 310, 5209, 4313
19263, 336, 4397, 1758, 5253
19264, 5560, 2073, 5545, 5724
19265, 3502, 3500, 3501, 3383
19266, 5109, 5105, 5092, 5280
19267, 5342, 5155, 5151, 5138
19268, 983, 4099, 106, 3804
19269, 294, 289, 293, 5702
19270, 3332, 3560, 3621, 3307
19271, 3973, 3977, 3663, 3943
19272, 1672, 5209, 5223, 1657
19273, 5267, 1758, 1750, 5253
19274, 3864, 3848, 1023, 5750
19275, 1450, 4133, 1449, 1232
19276, 4154, 4153, 225, 1452
19277, 4165, 1419, 214, 4164
19278, 3794, 4020, 3797, 3789
19279, 400, 2133, 4830, 438
19280, 3299, 3330, 3598, 3555
19281, 4038, 4052, 4047, 3829
19282, 3731, 3956, 3683, 3726
19283, 3030, 3447, 3036, 3035
19284, 3073, 3055, 627, 3070
19285, 2664, 2959, 2967, 2968
19286, 3122, 3206, 105, 982
19287, 2052, 395, 5416, 2386
19288, 253, 242, 1529, 1512
19289, 5311, 2107, 5279, 5308
19290, 4805, 5509, 4796, 5724
19291, 1414, 4198, 141, 4056
19292, 3937, 3935, 3936, 3742
19293, 3217, 3246, 3212, 3821
19294, 2631, 2974, 2976, 2679
19295, 3827, 4037, 4044, 4052
19296, 1787, 4427, 4564, 4565
19297, 3091, 3239, 3084, 3250
19298, 5319, 5099, 5094, 5452
19299, 5145, 5453, 5381, 5140
19300, 3787, 3791, 1306, 4024
19301, 3835, 4030, 4045, 3837
19302, 3852, 3863, 1355, 3856
19303, 3744, 3951, 3682, 3918
19304, 3064, 583, 641, 2628
19305, 4963, 2202, 4964, 5724
19306, 249, 1652, 248, 5712
19307, 1737, 262, 259, 5713
19308, 5354, 5477, 2418, 5478
19309, 5476, 5479, 5292, 2389
19310, 3922, 3659, 3655, 3654
19311, 338, 1739, 326, 5738
19312, 4137, 1460, 4088, 5684
19313, 3240, 3103, 3135, 3244
19314, 1897, 1905, 1832, 5719
19315, 3928, 3997, 3715, 3716
19316, 2631, 2662, 2974, 2679
19317, 5554, 2058, 4807, 5568
19318, 3414, 3576, 3816, 3822
19319, 5520, 2069, 399, 5710
19320, 1198, 3809, 1197, 1255
19321, 5510, 2156, 4905, 5514
19322, 1962, 4526, 1891, 4512
19323, 1449, 4245, 1534, 5684
19324, 3305, 3500, 3288, 3504
19325, 3852, 1350, 3849, 3856
19326, 4710, 4704, 4502, 1875
19327, 4527, 4525, 4512, 5686
19328, 4550, 4552, 4525, 5708
19329, 207, 239, 1497, 4191
19330, 4131, 228, 231, 1479
19331, 3704, 201, 3989, 1357
19332, 3041, 3455, 3032, 3453
19333, 4856, 4858, 4861, 5685
19334, 866, 1108, 1121, 1096
19335, 3255, 3138, 3266, 1126
19336, 3617, 3286, 3308, 3573
19337, 2959, 2641, 2673, 2664
19338, 1643, 1626, 4356, 4353
19339, 1419, 1418, 4066, 4197
19340, 5478, 5208, 5199, 2345
19341, 5252, 2361, 5479, 5243
19342, 1129, 3206, 106, 3824
19343, 1692, 4348, 4335, 5742
19344, 3229, 3226, 3098, 3100
19345, 5333, 5332, 5246, 1816
19346, 5394, 1601, 5395, 5202
19347, 4652, 4626, 5719, 5758
19348, 1864, 1715, 313, 4600
19349, 5220, 2351, 5463, 5196
19350, 2367, 5240, 5264, 5462
19351, 4092, 4138, 4137, 4078
19352, 169, 3784, 1242, 1240
19353, 326, 1765, 338, 5738
19354, 3744, 3951, 3960, 3682
19355, 460, 5419, 5414, 2185
19356, 5415, 423, 2106, 5418
19357, 3726, 3983, 3683, 3677
19358, 5535, 4333, 291, 4300
19359, 3084, 3239, 3090, 3265
19360, 3617, 3308, 3495, 3573
19361, 4004, 3933, 3991, 3733
19362, 1125, 4043, 978, 1126
19363, 3135, 3102, 3109, 3244
19364, 4874, 5569, 436, 2129
19365, 2192, 5414, 525, 4954
19366, 2149, 4897, 522, 5415
19367, 3621, 3268, 3393, 3587
19368, 3437, 675, 3027, 903
19369, 3312, 3507, 3482, 4125
19370, 1786, 4434, 4388, 1748
19371, 306, 1641, 297, 5742
19372, 4424, 4411, 5681, 5733
19373, 5266, 5254, 1757, 1765
19374, 5210, 1665, 5222, 1664
19375, 3503, 3537, 3287, 3272
19376, 4803, 4794, 2073, 5724
19377, 5246, 5302, 5332, 5333
19378, 5364, 5394, 5395, 5202
19379, 3141, 3233, 3142, 3123
19380, 5398, 5347, 5373, 5723
19381, 5285, 5336, 5311, 5722
19382, 5239, 5265, 2365, 5469
19383, 5221, 2349, 5468, 5195
19384, 3456, 894, 662, 930
19385, 2152, 443, 4915, 5570
19386, 3664, 3674, 3665, 3964
19387, 3375, 3301, 3611, 3289
19388, 3950, 3717, 3781, 4002
19389, 440, 399, 5520, 2133
19390, 3820, 3266, 3216, 3127
19391, 4580, 4707, 4510, 5746
19392, 3905, 1237, 3958, 3707
19393, 4099, 3819, 106, 3804
19394, 1832, 1905, 4643, 5719
19395, 671, 549, 2696, 2458
19396, 2991, 2662, 2656, 2679
19397, 2137, 5506, 4877, 5511
19398, 3896, 3723, 3667, 3660
19399, 3287, 3378, 3503, 3272
19400, 1934, 4701, 4646, 4601
19401, 3350, 167, 3640, 3491
19402, 44, 5725, 2912, 5752
19403, 1130, 983, 3806, 4101
19404, 221, 4277, 1439, 1586
19405, 217, 4267, 1577, 1431
19406, 3031, 3451, 3460, 3445
19407, 4060, 1408, 4200, 4199
19408, 3731, 3976, 3998, 1233
19409, 4207, 4211, 1519, 1507
19410, 4233, 1538, 1545, 4237
19411, 3853, 3854, 1353, 3860
19412, 3560, 3332, 3426, 3331
19413, 3458, 3042, 3039, 3443
19414, 4172, 3794, 4170, 1314
19415, 674, 675, 3024, 3434
19416, 581, 642, 21, 3072
19417, 2661, 2673, 2959, 2648
19418, 1263, 3413, 1262, 3643
19419, 2696, 2692, 671, 2458
19420, 618, 2713, 10, 736
19421, 1452, 4130, 4080, 4078
19422, 1421, 204, 1120, 4186
19423, 4611, 4609, 4615, 5743
19424, 4693, 5701, 4706, 5705
19425, 5101, 5095, 5436, 2308
19426, 5141, 5437, 2329, 5147
19427, 3378, 3501, 3502, 3503
19428, 2005, 4952, 390, 4727
19429, 2004, 4728, 389, 4895
19430, 4471, 4424, 4472, 5733
19431, 3721, 3960, 3951, 3682
19432, 1240, 3784, 1242, 1243
19433, 42, 1122, 3837, 975
19434, 3225, 3096, 3097, 3098
19435, 2693, 681, 599, 2698
19436, 2991, 2974, 2662, 2679
19437, 3255, 3209, 3094, 1125
19438, 931, 3450, 3457, 3440
19439, 4138, 4135, 4082, 4076
19440, 4304, 295, 296, 5526
19441, 3247, 3246, 3220, 3082
19442, 2680, 2649, 2652, 2964
19443, 589, 634, 590, 2589
19444, 3816, 3495, 3308, 1202
19445, 2837, 867, 48, 1007
19446, 3072, 642, 21, 3071
19447, 4044, 4027, 1330, 4051
19448, 931, 3457, 3464, 3440
19449, 3137, 3223, 3095, 3124
19450, 4097, 4101, 3806, 1255
19451, 4620, 4635, 1941, 4706
19452, 3157, 5699, 730, 5700
19453, 4580, 5746, 4510, 5757
19454, 639, 2827, 2809, 2807
19455, 4116, 3422, 1278, 5748
19456, 4500, 1878, 4705, 5732
19457, 4157, 4165, 1493, 5683
19458, 3381, 3595, 3641, 3341
19459, 3741, 4012, 4005, 1184
19460, 3828, 3842, 3835, 4050
19461, 3514, 3602, 3499, 1204
19462, 2676, 2973, 2654, 2662
19463, 1025, 3197, 1026, 1115
19464, 2979, 2964, 2652, 2650
19465, 4333, 5702, 4300, 5711
19466, 3102, 3227, 3103, 3097
19467, 4832, 2061, 446, 398
19468, 4734, 2186, 385, 4727
19469, 4733, 4728, 383, 2107
19470, 3071, 642, 2799, 3056
19471, 3060, 586, 638, 2534
19472, 3924, 3957, 3983, 3726
19473, 3955, 3932, 3980, 3770
19474, 1738, 1735, 4453, 4468
19475, 4366, 4351, 1653, 1639
19476, 3091, 3084, 3105, 3250
19477, 1795, 373, 1837, 1910
19478, 1675, 1716, 374, 1865
19479, 3752, 3762, 3650, 3959
19480, 3631, 3641, 3526, 3381
19481, 595, 594, 629, 2598
19482, 1857, 4605, 4589, 5753
19483, 5201, 5218, 4315, 1660
19484, 5245, 1753, 4398, 5262
19485, 3129, 3238, 3228, 3227
19486, 5344, 5378, 5143, 4745
19487, 5316, 5097, 4746, 5282
19488, 5094, 5294, 5281, 5319
19489, 5356, 5343, 5381, 5140
19490, 1464, 1460, 4133, 5684
19491, 1899, 1908, 4640, 5735
19492, 3731, 3685, 3976, 3703
19493, 930, 3456, 894, 1231
19494, 3921, 3931, 3940, 3725
19495, 3442, 3465, 3034, 932
19496, 4038, 4047, 4032, 3829
19497, 3967, 3658, 1294, 3966
19498, 1665, 5210, 4314, 1664
19499, 5254, 4396, 1757, 1765
19500, 4320, 4319, 4365, 4318
19501, 3983, 3956, 3924, 3726
19502, 679, 678, 3013, 2633
19503, 3948, 4115, 1293, 1193
19504, 4972, 4970, 2108, 4858
19505, 4938, 4935, 2187, 4940
19506, 4634, 1900, 4630, 5705
19507, 3249, 3228, 3223, 3137
19508, 1758, 4397, 1750, 5253
19509, 5209, 1672, 4313, 1657
19510, 4704, 1876, 4649, 5726
19511, 1254, 1197, 4101, 1255
19512, 1811, 1824, 4447, 5733
19513, 165, 3815, 1253, 3476
19514, 356, 1721, 352, 5733
19515, 5448, 2354, 5219, 5198
19516, 2370, 5263, 5242, 5449
19517, 5429, 5258, 535, 5696
19518, 5214, 5426, 530, 5697
19519, 3064, 641, 640, 2628
19520, 635, 589, 588, 2589
19521, 3714, 3672, 3987, 3677
19522, 3836, 978, 977, 1125
19523, 4082, 4080, 4130, 4078
19524, 713, 2707, 41, 3263
19525, 3789, 4020, 1303, 3790
19526, 3069, 589, 635, 2589
19527, 3226, 3247, 3114, 3254
19528, 4669, 4670, 4695, 5737
19529, 3332, 3560, 3430, 3621
19530, 297, 1672, 306, 5742
19531, 2312, 4784, 4776, 4788
19532, 2311, 4785, 4787, 4776
19533, 3412, 3269, 1180, 3619
19534, 3723, 3968, 3730, 3660
19535, 3856, 4177, 200, 1356
19536, 5340, 5368, 5215, 5457
19537, 5306, 5259, 5456, 5278
19538, 2660, 2681, 2684, 2944
19539, 3604, 1205, 3351, 3374
19540, 1607, 4482, 1672, 5742
19541, 3510, 3380, 3508, 3509
19542, 5490, 5491, 422, 5721
19543, 1570, 276, 4229, 4274
19544, 276, 4284, 1570, 4255
19545, 3244, 3109, 3135, 3208
19546, 4022, 3795, 3796, 4171
19547, 951, 99, 954, 3051
19548, 3448, 3456, 929, 1230
19549, 3284, 3499, 3514, 3504
19550, 3455, 3041, 663, 896
19551, 1298, 3782, 3946, 3873
19552, 5514, 2157, 4909, 5513
19553, 4873, 437, 5523, 2129
19554, 4350, 4305, 1656, 1688
19555, 640, 641, 3064, 2815
19556, 3704, 3740, 201, 1357
19557, 4399, 5262, 1819, 5330
19558, 1604, 5392, 5218, 4316
19559, 4885, 4894, 4897, 2303
19560, 4692, 4680, 4657, 5731
19561, 2648, 2984, 2985, 2653
19562, 3797, 3788, 1310, 3789
19563, 4892, 2302, 4885, 4895
19564, 4502, 4511, 4710, 1875
19565, 176, 4119, 1181, 1263
19566, 3868, 3778, 3756, 3713
19567, 3737, 3938, 3719, 3967
19568, 4668, 4667, 4654, 5756
19569, 2172, 4923, 5577, 4922
19570, 2436, 533, 534, 5696
19571, 4749, 5151, 5342, 4741
19572, 5105, 4742, 4750, 5280
19573, 5373, 5419, 5398, 5723
19574, 5336, 5418, 5311, 5722
19575, 4676, 4686, 4674, 5758
19576, 2653, 2654, 2963, 2974
19577, 1911, 1910, 1960, 4631
19578, 3298, 3378, 3501, 3383
19579, 4947, 4954, 2324, 4941
19580, 4952, 4948, 2323, 4941
19581, 3852, 3847, 1349, 3846
19582, 3302, 3309, 3644, 3290
19583, 3104, 3100, 3099, 3230
19584, 3733, 3656, 3932, 3770
19585, 532, 2434, 531, 5697
19586, 3340, 4123, 1183, 1267
19587, 5245, 4398, 1754, 5261
19588, 4315, 5217, 5201, 1661
19589, 3002, 2977, 2948, 2644
19590, 4036, 1104, 1014, 1103
19591, 1570, 243, 254, 1506
19592, 5500, 2126, 4868, 4869
19593, 3874, 3687, 3670, 3649
19594, 4739, 4735, 2026, 5103
19595, 4736, 2033, 5149, 4740
19596, 204, 1385, 1120, 4186
19597, 2995, 2664, 2967, 2968
19598, 5265, 2366, 5469, 5467
19599, 2350, 5468, 5466, 5221
19600, 5094, 5102, 5105, 5294
19601, 5148, 5151, 5356, 5140
19602, 1859, 4606, 4590, 5728
19603, 1901, 1900, 1828, 4630
19604, 2675, 548, 2999, 2457
19605, 2053, 523, 4785, 4787
19606, 2048, 526, 4769, 4765
19607, 4759, 4771, 4767, 2333
19608, 4769, 4759, 4765, 2332
19609, 2686, 2943, 2979, 2666
19610, 3749, 1114, 3990, 3939
19611, 3350, 3640, 167, 3417
19612, 3935, 3928, 3746, 3716
19613, 3994, 3662, 4001, 3759
19614, 1027, 3193, 1117, 1026
19615, 1238, 1248, 3743, 1237
19616, 1190, 4110, 3737, 1272
19617, 3922, 3945, 3923, 3654
19618, 1599, 4369, 4491, 1868
19619, 422, 5491, 2204, 5721
19620, 220, 4149, 1438, 4147
19621, 213, 4160, 4158, 1416
19622, 1295, 3945, 1296, 4106
19623, 3939, 3749, 3942, 4008
19624, 4324, 4318, 4365, 1675
19625, 4312, 306, 1656, 5744
19626, 2061, 4807, 5568, 5709
19627, 3250, 3235, 3105, 3249
19628, 3997, 4013, 3671, 3716
19629, 4736, 2333, 391, 4743
19630, 4735, 4744, 388, 2312
19631, 1963, 5754, 5730, 5755
19632, 3874, 181, 3775, 3649
19633, 3782, 1298, 4122, 3873
19634, 1765, 4566, 4567, 5738
19635, 3689, 3739, 3768, 3958
19636, 5315, 5292, 5479, 2389
19637, 2418, 5377, 5354, 5478
19638, 3389, 3412, 3413, 3550
19639, 3229, 3225, 3102, 3098
19640, 3756, 3924, 3998, 3726
19641, 1530, 1570, 254, 1506
19642, 4097, 984, 1131, 3805
19643, 3417, 3350, 3552, 3387
19644, 5528, 5537, 1718, 4356
19645, 1393, 1336, 4043, 1126
19646, 4133, 4126, 1450, 5684
19647, 5378, 1971, 4740, 4745
19648, 1993, 4739, 4746, 5316
19649, 3942, 3652, 3749, 1115
19650, 119, 1029, 3167, 5725
19651, 3498, 3500, 3499, 3399
19652, 1336, 1335, 4043, 3836
19653, 3565, 3299, 3406, 3598
19654, 1819, 4399, 1760, 5329
19655, 2375, 5429, 5421, 5258
19656, 5426, 5214, 2359, 5423
19657, 4158, 1487, 4159, 4205
19658, 1472, 4145, 4147, 4148
19659, 4404, 1836, 1766, 4467
19660, 3662, 3994, 3735, 3746
19661, 3434, 675, 3437, 902
19662, 3331, 3567, 3561, 3285
19663, 3496, 3018, 3561, 3616
19664, 91, 1224, 3457, 3468
19665, 5521, 2159, 446, 5512
19666, 2133, 440, 399, 5016
19667, 2541, 593, 630, 2586
19668, 1230, 3456, 930, 1231
19669, 1505, 1530, 1511, 1506
19670, 978, 1336, 4043, 3836
19671, 3298, 3501, 3638, 3415
19672, 1972, 4736, 5345, 4740
19673, 4739, 1994, 4735, 5283
19674, 3787, 1305, 4022, 4023
19675, 4633, 4635, 4620, 4706
19676, 3893, 3736, 3696, 3674
19677, 3458, 3039, 665, 898
19678, 4426, 4442, 1769, 5738
19679, 4746, 4739, 2025, 5097
19680, 2032, 5143, 4740, 4745
19681, 4100, 4097, 3805, 1256
19682, 664, 2683, 2994, 2635
19683, 4594, 1855, 4597, 5706
19684, 5585, 4858, 5596, 5685
19685, 4492, 1665, 308, 5704
19686, 1354, 3862, 3852, 3861
19687, 4000, 3960, 3744, 3918
19688, 723, 3166, 3169, 5725
19689, 3669, 3682, 3917, 3918
19690, 3288, 3353, 3500, 3305
19691, 3511, 3328, 3390, 3609
19692, 619, 572, 2710, 716
19693, 3139, 3257, 3128, 3267
19694, 3640, 3552, 3350, 3491
19695, 4746, 5097, 5098, 5282
19696, 5143, 5144, 5344, 4745
19697, 1335, 4043, 3836, 4035
19698, 2970, 2661, 2984, 2648
19699, 1197, 3806, 4101, 1255
19700, 906, 910, 3014, 3587
19701, 3460, 3034, 3040, 3442
19702, 5105, 2020, 4742, 5109
19703, 5155, 5151, 2027, 4741
19704, 18, 680, 599, 2527
19705, 201, 5716, 195, 5750
19706, 3308, 3286, 3617, 3553
19707, 3680, 118, 3648, 1021
19708, 3938, 1273, 3679, 3999
19709, 4052, 4029, 3841, 3832
19710, 3085, 3086, 3220, 3082
19711, 3613, 1278, 1207, 3349
19712, 670, 685, 686, 2976
19713, 3979, 3686, 3758, 3972
19714, 4368, 4369, 1702, 5704
19715, 3828, 1014, 1013, 4036
19716, 5473, 2364, 5251, 5475
19717, 5472, 5474, 5207, 2348
19718, 3492, 4111, 1190, 1272
19719, 3239, 3090, 3107, 3129
19720, 2948, 3002, 2667, 2992
19721, 3270, 3566, 3537, 3271
19722, 1031, 1373, 3168, 1382
19723, 3713, 3738, 3657, 4016
19724, 4079, 1444, 4152, 4082
19725, 4070, 4067, 1427, 4163
19726, 3717, 3719, 3781, 4002
19727, 4027, 1330, 3827, 4044
19728, 4865, 5578, 2114, 4870
19729, 666, 29, 26, 2698
19730, 2653, 2654, 2974, 2662
19731, 3550, 1262, 3413, 3643
19732, 3377, 1269, 1467, 3493
19733, 4470, 4471, 4472, 5733
19734, 4881, 5564, 4879, 2131
19735, 4387, 1722, 1721, 5681
19736, 4173, 1380, 4024, 4169
19737, 374, 4720, 4548, 4524
19738, 3815, 1253, 1196, 1254
19739, 2535, 631, 592, 2586
19740, 4649, 1876, 4504, 5726
19741, 3576, 1179, 3414, 3269
19742, 3795, 3797, 1315, 4170
19743, 3523, 3644, 3517, 3290
19744, 1920, 4564, 4439, 1822
19745, 3291, 922, 3585, 921
19746, 5583, 2098, 2087, 5646
19747, 2244, 2243, 5660, 5584
19748, 114, 1017, 3792, 1032
19749, 4184, 4179, 1344, 3849
19750, 42, 1122, 975, 3074
19751, 1779, 4445, 4439, 5707
19752, 4179, 4184, 1365, 3863
19753, 984, 3087, 3139, 3213
19754, 3508, 3634, 3431, 3512
19755, 2993, 2964, 2652, 2686
19756, 3282, 1211, 4124, 1210
19757, 4747, 5098, 5096, 5318
19758, 5144, 5142, 5380, 4748
19759, 3097, 3102, 3225, 3098
19760, 2968, 2664, 2959, 2661
19761, 2961, 2678, 2649, 2639
19762, 4707, 4580, 4510, 4598
19763, 3782, 3671, 3946, 3873
19764, 4045, 4049, 1122, 3837
19765, 3933, 4004, 3870, 3733
19766, 1692, 4343, 4379, 5742
19767, 3569, 3292, 3408, 3487
19768, 1705, 1706, 4515, 5706
19769, 4493, 4496, 4616, 4495
19770, 2050, 5215, 5368, 5457
19771, 5456, 2052, 5259, 5306
19772, 3537, 3287, 3272, 3273
19773, 3519, 3282, 3297, 3368
19774, 3044, 3041, 3032, 3453
19775, 4881, 5573, 5564, 2131
19776, 3493, 3299, 3565, 3598
19777, 4608, 4553, 4615, 4618
19778, 2912, 5725, 2876, 5752
19779, 3446, 3030, 3463, 3454
19780, 929, 3456, 3038, 930
19781, 3390, 3404, 3518, 3609
19782, 3279, 3615, 3601, 3429
19783, 4752, 4747, 5096, 5318
19784, 4748, 5142, 5380, 4751
19785, 4471, 1811, 4414, 5733
19786, 3123, 3093, 3147, 3224
19787, 1469, 4121, 177, 3643
19788, 4726, 5732, 4724, 5746
19789, 900, 2977, 673, 901
19790, 3040, 3460, 3442, 3454
19791, 4490, 4491, 4342, 1678
19792, 3332, 3560, 3561, 3331
19793, 4317, 5394, 5217, 1667
19794, 894, 662, 2636, 2990
19795, 3197, 1026, 1115, 1116
19796, 1643, 4304, 376, 5711
19797, 3639, 3326, 3327, 3610
19798, 3829, 4038, 4052, 3832
19799, 4737, 389, 2302, 5109
19800, 2323, 5155, 390, 4738
19801, 4201, 4200, 4061, 1407
19802, 1457, 4094, 4140, 4139
19803, 346, 4416, 4411, 5681
19804, 4199, 4060, 1408, 4059
19805, 5217, 1662, 4317, 1667
19806, 1755, 4400, 1763, 5261
19807, 301, 302, 1688, 4305
19808, 1786, 329, 330, 4388
19809, 3090, 3239, 3091, 3129
19810, 3093, 3123, 3142, 3224
19811, 3079, 3138, 978, 1126
19812, 3282, 3519, 3515, 3368
19813, 4070, 4066, 4064, 4199
19814, 3305, 3353, 3502, 3336
19815, 4929, 2182, 457, 5723
19816, 4687, 4658, 4659, 5730
19817, 3552, 3311, 3553, 3387
19818, 1308, 3793, 3799, 3792
19819, 5470, 2104, 4854, 5722
19820, 4931, 2183, 5471, 5723
19821, 2979, 2652, 2964, 2686
19822, 4611, 5701, 4609, 5743
19823, 2967, 2660, 2664, 2995
19824, 4800, 2058, 4807, 5554
19825, 2817, 2800, 642, 3071
19826, 4929, 457, 2183, 5723
19827, 3234, 3083, 3207, 3261
19828, 4044, 1386, 4051, 5760
19829, 1432, 4095, 4075, 4085
19830, 3482, 1212, 3603, 3509
19831, 2651, 2670, 2951, 2953
19832, 4154, 4146, 4132, 5684
19833, 3324, 3325, 3380, 3510
19834, 3352, 3303, 3426, 3525
19835, 4690, 5754, 5732, 5755
19836, 3934, 3735, 3746, 3702
19837, 618, 2713, 571, 10
19838, 4504, 1876, 4502, 5726
19839, 3103, 3227, 3124, 3097
19840, 1721, 5681, 1720, 5733
19841, 3979, 3991, 3758, 3921
19842, 3991, 3734, 4004, 3733
19843, 5018, 2234, 479, 5068
19844, 5072, 2285, 512, 5089
19845, 2256, 5080, 493, 5042
19846, 2265, 5083, 499, 5051
19847, 5060, 2274, 505, 5086
19848, 4424, 4430, 4411, 5733
19849, 3350, 3311, 3552, 3387
19850, 3827, 1330, 195, 4044
19851, 1357, 1358, 1020, 5750
19852, 3139, 3104, 3131, 3267
19853, 3271, 3566, 3537, 3562
19854, 3137, 3091, 3228, 3124
19855, 3436, 1219, 3434, 3025
19856, 195, 5716, 1330, 5750
19857, 2109, 4862, 4861, 4858
19858, 4961, 4935, 4960, 2188
19859, 3259, 976, 3130, 3078
19860, 5516, 2061, 398, 5521
19861, 446, 2061, 5521, 398
19862, 1909, 4621, 4628, 5717
19863, 3547, 3314, 3309, 3542
19864, 5400, 4281, 280, 1585
19865, 4271, 5401, 278, 1576
19866, 3102, 3135, 3103, 3244
19867, 3428, 3338, 3568, 3382
19868, 2167, 5574, 4924, 4918
19869, 3529, 3282, 3297, 3519
19870, 3291, 3585, 3488, 921
19871, 3501, 3298, 3383, 3415
19872, 3872, 1190, 4110, 3737
19873, 3756, 3778, 3924, 3726
19874, 342, 4628, 1908, 5735
19875, 3515, 3282, 1211, 3579
19876, 2645, 2650, 2649, 2960
19877, 1705, 4515, 4547, 5749
19878, 1247, 3743, 1248, 1237
19879, 4658, 4599, 1935, 4587
19880, 4082, 4130, 4138, 4078
19881, 5148, 5356, 5460, 5140
19882, 5094, 5102, 5294, 5461
19883, 2680, 2688, 2965, 2652
19884, 3635, 3306, 3356, 3528
19885, 4640, 1906, 1898, 5737
19886, 5421, 5428, 5413, 5696
19887, 3799, 4025, 1032, 5740
19888, 3920, 3736, 3674, 3725
19889, 4963, 2203, 5575, 4966
19890, 3607, 3304, 3524, 3504
19891, 2684, 2683, 2660, 2944
19892, 1205, 3521, 3604, 3480
19893, 3804, 1196, 1197, 1254
19894, 5412, 5425, 5423, 5697
19895, 3787, 3795, 1311, 3796
19896, 1229, 3448, 929, 1230
19897, 2942, 2996, 2657, 2969
19898, 4497, 4636, 371, 4511
19899, 308, 1673, 4492, 5704
19900, 551, 671, 2692, 2458
19901, 3002, 2644, 2688, 2680
19902, 3769, 3652, 3749, 4008
19903, 2655, 2676, 2656, 2991
19904, 4045, 3835, 3837, 3831
19905, 2983, 2969, 667, 2658
19906, 2678, 2680, 2989, 2961
19907, 5298, 5310, 5420, 2401
19908, 5372, 5422, 2430, 5360
19909, 331, 4563, 1758, 5707
19910, 3295, 3481, 1210, 3579
19911, 3938, 3737, 3872, 3967
19912, 3503, 3378, 3620, 3272
19913, 3828, 4033, 4041, 3838
19914, 2954, 2956, 2959, 2673
19915, 4925, 5399, 4926, 5745
19916, 3451, 3034, 3031, 3465
19917, 5551, 2061, 396, 5568
19918, 5296, 5314, 5432, 2384
19919, 5376, 5433, 2413, 5358
19920, 308, 300, 1654, 5704
19921, 3465, 3034, 3031, 3460
19922, 1214, 1183, 4123, 3409
19923, 2116, 4867, 5599, 5600
19924, 5218, 5200, 5391, 1670
19925, 2688, 2965, 3002, 2680
19926, 4216, 4207, 4211, 1519
19927, 4237, 1545, 4233, 4242
19928, 331, 323, 1719, 5707
19929, 4707, 4580, 4598, 4593
19930, 1102, 4041, 1013, 1103
19931, 4171, 1316, 3796, 4169
19932, 4061, 4071, 1399, 4060
19933, 4094, 4093, 1434, 4083
19934, 3628, 3640, 3552, 3417
19935, 3244, 3135, 3240, 3208
19936, 2983, 2987, 2969, 2658
19937, 2408, 5464, 5383, 5356
19938, 5294, 5321, 2379, 5465
19939, 168, 1250, 172, 5689
19940, 294, 1625, 1609, 5702
19941, 1026, 3193, 1117, 1116
19942, 5077, 2252, 492, 5038
19943, 2095, 415, 5065, 4845
19944, 3426, 3303, 3520, 3525
19945, 3495, 3617, 3576, 3414
19946, 3508, 3410, 3482, 3509
19947, 5341, 2186, 4734, 4727
19948, 2107, 4733, 4728, 5279
19949, 3498, 3484, 3497, 3313
19950, 4868, 2119, 5602, 4869
19951, 3746, 3936, 3934, 3935
19952, 3294, 3326, 3325, 3608
19953, 3844, 1341, 4182, 3845
19954, 92, 44, 940, 5752
19955, 3136, 3244, 3102, 3144
19956, 3923, 3945, 4001, 3654
19957, 4187, 4159, 1487, 4205
19958, 4148, 1472, 4145, 4128
19959, 3566, 3270, 1187, 3562
19960, 3528, 3356, 3635, 3536
19961, 4030, 4049, 3837, 1015
19962, 3672, 3987, 3682, 3714
19963, 2103, 420, 4850, 5308
19964, 108, 3143, 1005, 989
19965, 3395, 3406, 3299, 3598
19966, 5534, 5525, 4416, 1782
19967, 3994, 4001, 3662, 3923
19968, 4507, 1958, 4504, 5726
19969, 918, 3616, 3007, 3285
19970, 3860, 1353, 3853, 3861
19971, 4022, 4021, 1304, 3788
19972, 4316, 1659, 5218, 1670
19973, 4579, 4578, 4576, 5743
19974, 3917, 3987, 3682, 3672
19975, 4147, 4145, 4127, 1438
19976, 1416, 4158, 4205, 4185
19977, 4643, 5719, 4626, 5758
19978, 3520, 3418, 3332, 3560
19979, 3027, 3437, 903, 3435
19980, 4607, 1869, 359, 4494
19981, 642, 2799, 2800, 2817
19982, 2633, 2634, 2955, 2637
19983, 3553, 3311, 3286, 3315
19984, 331, 1748, 4563, 5707
19985, 2311, 2312, 4792, 4776
19986, 3241, 3207, 3075, 3265
19987, 5107, 5451, 5465, 2304
19988, 4025, 3799, 4172, 4174
19989, 5543, 2173, 455, 5551
19990, 5565, 4909, 2161, 5574
19991, 2675, 687, 671, 2457
19992, 3942, 3749, 3652, 4008
19993, 3509, 3380, 3277, 3511
19994, 187, 119, 1292, 1291
19995, 2950, 2999, 671, 2689
19996, 3645, 3601, 3615, 3429
19997, 3456, 3038, 3448, 929
19998, 4747, 4746, 2024, 5098
19999, 4745, 2031, 5144, 4748
20000, 1196, 1197, 1254, 3548
20001, 4581, 5688, 4594, 5706
20002, 2537, 590, 634, 2589
20003, 4197, 1418, 4066, 4055
20004, 673, 2663, 2977, 2941
20005, 3426, 3520, 3560, 3525
20006, 2303, 4885, 4901, 2302
20007, 3401, 3330, 3555, 3578
20008, 4698, 4588, 1932, 4585
20009, 5524, 4332, 1690, 5535
20010, 4036, 1013, 4041, 1103
20011, 5493, 4829, 399, 5016
20012, 3979, 3758, 3736, 3921
20013, 3746, 3662, 3994, 3759
20014, 4799, 4808, 5550, 5721
20015, 3595, 3641, 3341, 3567
20016, 5369, 5372, 5338, 5697
20017, 4924, 5558, 5574, 2167
20018, 2654, 2963, 2646, 2653
20019, 3765, 3745, 3701, 4014
20020, 917, 28, 3023, 3015
20021, 4186, 1422, 1421, 5683
20022, 3607, 3500, 3305, 3504
20023, 4914, 445, 2152, 5501
20024, 2676, 2655, 2946, 2991
20025, 2323, 2324, 4941, 4956
20026, 2984, 2677, 2970, 2648
20027, 3345, 3327, 3326, 3610
20028, 1112, 119, 150, 1292
20029, 5307, 5276, 5310, 5696
20030, 895, 894, 662, 3456
20031, 3074, 1122, 975, 1123
20032, 3792, 4025, 4020, 1302
20033, 2120, 5569, 430, 4872
20034, 3319, 3337, 3318, 3532
20035, 2958, 2640, 2646, 2648
20036, 131, 3170, 1072, 1073
20037, 123, 3187, 1034, 1035
20038, 4795, 5517, 5502, 2067
20039, 3216, 3108, 3820, 3127
20040, 5146, 5151, 5382, 4749
20041, 4750, 5100, 5105, 5320
20042, 3331, 3341, 3567, 3285
20043, 3527, 3518, 3321, 3577
20044, 1198, 3292, 1199, 3580
20045, 3830, 1335, 3836, 4035
20046, 3060, 637, 638, 2806
20047, 3917, 3682, 3669, 3672
20048, 3924, 3868, 3957, 3778
20049, 4774, 2332, 4759, 2333
20050, 5553, 5596, 5541, 5685
20051, 2973, 2963, 2962, 2654
20052, 3507, 3312, 3482, 3508
20053, 2374, 5420, 5439, 5256
20054, 5422, 5212, 2358, 5438
20055, 4421, 4415, 4432, 5707
20056, 3314, 3631, 3343, 3542
20057, 4587, 1934, 4646, 4601
20058, 2166, 4917, 453, 5570
20059, 5394, 5202, 5217, 1667
20060, 5246, 5261, 1763, 5332
20061, 186, 3680, 1114, 3203
20062, 2961, 2680, 2965, 2964
20063, 3569, 3568, 3338, 3382
20064, 4796, 5509, 5508, 5724
20065, 3342, 3597, 3629, 3339
20066, 2838, 940, 44, 5752
20067, 3762, 3704, 3989, 3761
20068, 3, 598, 2704, 2614
20069, 3746, 3936, 3935, 3742
20070, 2060, 4798, 5592, 5575
20071, 3525, 3560, 3426, 3331
20072, 4133, 1449, 1464, 5684
20073, 2647, 658, 646, 2945
20074, 4107, 1187, 3555, 3562
20075, 3327, 3325, 3326, 3639
20076, 2683, 663, 664, 896
20077, 3414, 3617, 3576, 3619
20078, 671, 686, 670, 2696
20079, 4138, 4093, 1458, 4139
20080, 3967, 1294, 4017, 3966
20081, 1211, 3515, 3603, 3509
20082, 4004, 3734, 3991, 3940
20083, 3043, 3465, 3457, 3029
20084, 3029, 3457, 91, 931
20085, 1953, 4629, 4622, 4695
20086, 5345, 5378, 1972, 4740
20087, 5283, 4739, 1994, 5316
20088, 934, 3030, 3449, 935
20089, 2663, 2989, 2941, 2982
20090, 2346, 5477, 5228, 5478
20091, 5272, 2362, 5479, 5476
20092, 2663, 673, 28, 2941
20093, 4200, 4061, 1407, 4060
20094, 4094, 1457, 4093, 4139
20095, 4458, 5532, 1839, 5529
20096, 4674, 4675, 4676, 5720
20097, 5356, 5381, 5460, 5140
20098, 5319, 5094, 5294, 5461
20099, 883, 717, 718, 3248
20100, 2958, 2646, 2962, 2963
20101, 3940, 4004, 3734, 4009
20102, 3324, 3325, 3510, 3608
20103, 2950, 2656, 2980, 2689
20104, 3976, 3731, 3784, 1233
20105, 2920, 46, 729, 2849
20106, 3995, 3691, 3701, 3700
20107, 3461, 931, 3440, 5725
20108, 3580, 1199, 1198, 1256
20109, 3534, 3522, 3339, 3302
20110, 4329, 4347, 4337, 5704
20111, 3690, 3970, 3981, 3752
20112, 389, 4737, 4742, 5109
20113, 4741, 390, 5155, 4738
20114, 3598, 3330, 3395, 3634
20115, 984, 3806, 3809, 4097
20116, 4883, 5602, 438, 2133
20117, 3855, 3844, 3864, 3859
20118, 3441, 3446, 3445, 3035
20119, 3724, 4018, 3674, 3725
20120, 3036, 3447, 3030, 3037
20121, 1450, 4126, 4133, 1232
20122, 5146, 4754, 2028, 4749
20123, 4753, 2021, 4750, 5100
20124, 4123, 1268, 1183, 1267
20125, 3108, 3218, 3255, 3216
20126, 4797, 4806, 2073, 5724
20127, 2940, 26, 29, 898
20128, 3252, 3261, 3235, 3141
20129, 4868, 2119, 5573, 5602
20130, 3650, 3929, 3752, 3959
20131, 4849, 4853, 421, 2103
20132, 2943, 2979, 2666, 2975
20133, 3778, 3868, 3957, 4011
20134, 3804, 983, 4099, 4101
20135, 1672, 4482, 4481, 5742
20136, 1068, 128, 3173, 1069
20137, 5278, 5315, 5481, 2388
20138, 5377, 5480, 2417, 5340
20139, 1191, 3582, 1274, 4114
20140, 2984, 2648, 2963, 2653
20141, 5560, 5598, 5592, 5724
20142, 1269, 3783, 1184, 1467
20143, 4007, 3724, 3727, 3725
20144, 1322, 4099, 3819, 3815
20145, 3226, 3099, 3100, 3230
20146, 3644, 3523, 3302, 3290
20147, 4012, 3741, 1269, 1184
20148, 2878, 875, 2869, 5751
20149, 1129, 4099, 983, 4101
20150, 1783, 346, 4458, 5681
20151, 3002, 2948, 2667, 2644
20152, 3644, 3547, 3309, 3542
20153, 3998, 3956, 3731, 3726
20154, 4295, 1585, 260, 1583
20155, 4258, 1560, 251, 1576
20156, 2542, 596, 627, 2594
20157, 357, 1872, 4597, 5706
20158, 1827, 1826, 4528, 5705
20159, 4352, 4303, 1652, 1640
20160, 4386, 1737, 1736, 4454
20161, 3465, 3451, 3043, 3457
20162, 4861, 2113, 4859, 5685
20163, 4042, 3830, 4040, 3840
20164, 2675, 2999, 687, 2457
20165, 686, 685, 670, 2697
20166, 721, 886, 3241, 887
20167, 3516, 3611, 3522, 3301
20168, 3103, 3240, 3227, 3244
20169, 42, 1122, 3074, 3205
20170, 5504, 5523, 2139, 4882
20171, 3737, 4110, 180, 1272
20172, 3233, 3141, 3235, 3123
20173, 3298, 3620, 3566, 3397
20174, 4500, 5732, 4503, 5746
20175, 3634, 3330, 3395, 3388
20176, 4117, 3499, 3602, 1204
20177, 4622, 4639, 4682, 5735
20178, 5520, 5500, 440, 2133
20179, 325, 324, 5527, 4387
20180, 2992, 3002, 2667, 2688
20181, 3244, 3225, 3102, 3229
20182, 3607, 3606, 3334, 3305
20183, 4679, 4683, 4684, 5703
20184, 4800, 2063, 4798, 5519
20185, 682, 666, 29, 2940
20186, 1212, 3482, 3410, 3509
20187, 4685, 4655, 4591, 5759
20188, 4683, 4689, 4655, 5753
20189, 4581, 4594, 4597, 5706
20190, 5097, 4739, 2025, 5103
20191, 5143, 5149, 2032, 4740
20192, 4799, 4795, 5576, 2071
20193, 2902, 43, 2857, 723
20194, 2990, 895, 662, 2684
20195, 4368, 4329, 1703, 4380
20196, 60, 57, 3051, 818
20197, 3351, 1205, 3602, 1204
20198, 3602, 3604, 1205, 3351
20199, 3450, 3457, 3465, 3029
20200, 4852, 421, 2103, 5722
20201, 3976, 3784, 3993, 1233
20202, 4908, 2161, 4909, 5574
20203, 3715, 3702, 3928, 3716
20204, 3521, 3303, 1205, 3374
20205, 4373, 1691, 4331, 4382
20206, 107, 4096, 3803, 3801
20207, 3834, 4040, 4039, 3830
20208, 4852, 2104, 421, 5722
20209, 5535, 4332, 4333, 5711
20210, 5512, 4913, 2158, 5513
20211, 1268, 3741, 4005, 1184
20212, 3854, 3853, 1348, 3845
20213, 4041, 4033, 3828, 4050
20214, 1187, 3479, 3566, 3562
20215, 4640, 4622, 4629, 4695
20216, 3620, 3378, 3298, 3272
20217, 4584, 4591, 4655, 5759
20218, 356, 4732, 1997, 5304
20219, 1975, 293, 5366, 4731
20220, 5506, 2137, 4877, 4875
20221, 3132, 3238, 3129, 3103
20222, 2953, 2651, 2670, 2681
20223, 1171, 3591, 3361, 1144
20224, 4540, 4514, 4541, 5729
20225, 4642, 4625, 4627, 5741
20226, 1419, 4165, 1420, 5683
20227, 1451, 4154, 1452, 5684
20228, 2108, 4857, 4972, 4858
20229, 4935, 4934, 2187, 4940
20230, 3961, 3729, 3745, 3772
20231, 4921, 4920, 5601, 2170
20232, 2311, 523, 5416, 4787
20233, 5417, 4769, 526, 2332
20234, 2406, 5414, 5373, 5355
20235, 5293, 5311, 2377, 5415
20236, 731, 1019, 3151, 5699
20237, 3083, 3234, 3112, 3261
20238, 356, 324, 5232, 1721
20239, 1643, 293, 296, 5188
20240, 3038, 3041, 3455, 3032
20241, 3855, 3854, 3844, 3859
20242, 3111, 3252, 3214, 3113
20243, 1268, 1269, 3741, 1184
20244, 1768, 4446, 4448, 4413
20245, 3386, 3286, 3605, 3573
20246, 3961, 3715, 3997, 3772
20247, 662, 3038, 3456, 930
20248, 678, 2634, 2663, 2941
20249, 3916, 3719, 3911, 3967
20250, 1924, 368, 5705, 5743
20251, 3637, 3408, 3337, 3612
20252, 5430, 5296, 5432, 2384
20253, 5433, 5431, 2413, 5358
20254, 1866, 1961, 1717, 4719
20255, 4717, 1838, 1911, 1960
20256, 3688, 4000, 3960, 3744
20257, 922, 1220, 3585, 921
20258, 1022, 3153, 5700, 5716
20259, 1828, 4459, 1749, 333
20260, 1707, 4357, 304, 1655
20261, 3613, 3418, 3430, 3349
20262, 3341, 3641, 3381, 3567
20263, 3326, 3639, 3608, 3539
20264, 2965, 2989, 2680, 2961
20265, 2684, 2990, 895, 2944
20266, 3534, 3629, 3597, 3339
20267, 5516, 5484, 5486, 5709
20268, 4058, 205, 4073, 1417
20269, 4091, 218, 1437, 4085
20270, 3834, 4040, 3839, 4034
20271, 1941, 4620, 4706, 5705
20272, 991, 1002, 3110, 3210
20273, 3404, 3609, 3329, 3636
20274, 3916, 4003, 3658, 3966
20275, 3328, 3380, 3510, 3511
20276, 3270, 3566, 3271, 3562
20277, 1478, 4132, 4154, 4146
20278, 5465, 5102, 5107, 2304
20279, 3835, 1014, 3828, 4036
20280, 3555, 1187, 3401, 3562
20281, 1121, 141, 1119, 5700
20282, 5159, 2335, 2045, 4763
20283, 4943, 5173, 2008, 2036
20284, 2342, 2195, 4945, 5172
20285, 4779, 1984, 2014, 5113
20286, 2056, 5112, 4781, 2317
20287, 5127, 2001, 2017, 4888
20288, 1977, 5158, 4761, 2039
20289, 2320, 5126, 4890, 2146
20290, 5342, 5382, 5151, 4749
20291, 5320, 5105, 4750, 5280
20292, 3437, 3024, 675, 3434
20293, 3040, 3031, 3034, 3460
20294, 3527, 3363, 3400, 3622
20295, 2693, 666, 26, 2698
20296, 1469, 3640, 167, 3491
20297, 3789, 3797, 3794, 1309
20298, 169, 3784, 3703, 1242
20299, 4629, 4681, 4641, 5737
20300, 461, 4935, 4938, 5587
20301, 3352, 3521, 3303, 3525
20302, 3446, 3460, 3445, 3035
20303, 3829, 1331, 4038, 3832
20304, 5215, 5480, 5340, 5457
20305, 5278, 5259, 5456, 5481
20306, 3828, 1013, 4041, 4036
20307, 2936, 2935, 717, 2711
20308, 3301, 3522, 3516, 3290
20309, 3045, 26, 681, 680
20310, 3621, 3561, 3496, 3307
20311, 3734, 3940, 3769, 3725
20312, 4055, 1415, 1410, 4196
20313, 4564, 1920, 336, 1822
20314, 3451, 3031, 3043, 925
20315, 4858, 4861, 2109, 4856
20316, 2188, 4935, 4960, 4933
20317, 4404, 4403, 4467, 4405
20318, 2402, 5421, 5413, 5307
20319, 5423, 5412, 5369, 2431
20320, 5181, 5177, 4946, 2037
20321, 5178, 5175, 2343, 4944
20322, 5117, 5121, 4778, 2318
20323, 5119, 4780, 2015, 5115
20324, 5133, 5129, 4887, 2319
20325, 5167, 4762, 2334, 5162
20326, 5161, 5165, 4764, 2038
20327, 3407, 3502, 3505, 3503
20328, 3859, 4182, 1362, 3860
20329, 1377, 4020, 4021, 4172
20330, 5430, 5432, 5108, 2310
20331, 2331, 5431, 5433, 5154
20332, 4889, 2016, 5131, 5134
20333, 3687, 3874, 3670, 3949
20334, 1212, 3277, 1211, 3509
20335, 4935, 4933, 4934, 5690
20336, 3836, 4042, 3830, 4035
20337, 195, 3827, 4044, 3843
20338, 1963, 5730, 374, 5755
20339, 4176, 4184, 1344, 3849
20340, 4691, 4653, 4694, 5728
20341, 2984, 2640, 2958, 2648
20342, 4356, 5537, 1718, 5526
20343, 4491, 309, 1599, 1868
20344, 3098, 3102, 3229, 3144
20345, 2971, 659, 646, 2647
20346, 3242, 1130, 1129, 983
20347, 1124, 4042, 3840, 977
20348, 3212, 3216, 3217, 3821
20349, 3772, 3997, 3671, 3716
20350, 3827, 4037, 4052, 3832
20351, 4857, 4858, 4856, 5685
20352, 5460, 5453, 2327, 5140
20353, 5094, 5461, 5452, 2306
20354, 641, 642, 582, 3056
20355, 723, 1017, 114, 3166
20356, 4567, 4426, 4418, 5738
20357, 1347, 3855, 3854, 3844
20358, 3514, 3604, 3602, 3351
20359, 1226, 3445, 3451, 926
20360, 4576, 4578, 1912, 5743
20361, 3080, 993, 3208, 1001
20362, 3502, 3500, 3353, 3305
20363, 427, 5585, 4862, 4858
20364, 1124, 976, 3259, 3078
20365, 3378, 3501, 3620, 3298
20366, 920, 1218, 919, 3023
20367, 1749, 1828, 4391, 4457
20368, 1707, 4355, 1655, 4308
20369, 3453, 3044, 3033, 3459
20370, 4420, 1767, 4418, 5738
20371, 679, 3013, 3016, 2951
20372, 3154, 115, 1019, 3155
20373, 1206, 3418, 3613, 1207
20374, 3482, 3410, 3312, 1212
20375, 2650, 2979, 2964, 2960
20376, 4724, 1961, 5746, 5755
20377, 717, 2935, 883, 718
20378, 5173, 4943, 5177, 2036
20379, 4945, 5175, 2342, 5172
20380, 2014, 4779, 5113, 5115
20381, 5117, 4781, 5112, 2317
20382, 5161, 4761, 5158, 2039
20383, 2017, 5127, 4888, 5131
20384, 5129, 5126, 4890, 2320
20385, 4763, 5159, 2335, 5162
20386, 2926, 139, 1121, 5700
20387, 4016, 3778, 3738, 4011
20388, 2635, 2994, 664, 897
20389, 2964, 2961, 2649, 2960
20390, 3235, 3233, 3123, 3224
20391, 4794, 5567, 5545, 5724
20392, 3339, 3522, 3629, 3301
20393, 3131, 3242, 3254, 3076
20394, 4146, 4126, 4132, 5684
20395, 3756, 3998, 3651, 3726
20396, 2994, 2635, 2949, 897
20397, 3348, 3541, 3538, 3376
20398, 1512, 1529, 1511, 1505
20399, 1419, 1420, 4215, 5683
20400, 1452, 4241, 1451, 5684
20401, 4393, 4389, 4457, 4392
20402, 4310, 4309, 4355, 4306
20403, 3038, 663, 895, 3455
20404, 4616, 4614, 4610, 5749
20405, 1207, 3418, 3613, 3349
20406, 3487, 1198, 1197, 1255
20407, 1239, 1248, 3718, 1238
20408, 1414, 1510, 211, 1413
20409, 1465, 1466, 230, 1539
20410, 3326, 3294, 3632, 3608
20411, 3943, 3994, 3662, 3923
20412, 2594, 595, 628, 2598
20413, 3854, 3855, 1352, 3859
20414, 3119, 3209, 3078, 3094
20415, 1307, 3791, 4166, 4168
20416, 3391, 3605, 3315, 3546
20417, 4610, 1871, 1870, 4496
20418, 4958, 4960, 2199, 5690
20419, 4138, 4082, 4078, 4076
20420, 91, 931, 5689, 5740
20421, 3637, 3569, 3408, 3612
20422, 1836, 1766, 342, 4404
20423, 3376, 3348, 3541, 3416
20424, 3467, 1239, 1248, 1249
20425, 2986, 675, 676, 2672
20426, 3036, 3447, 3452, 3441
20427, 107, 4096, 3801, 1134
20428, 2990, 662, 2651, 2684
20429, 2680, 2989, 2644, 2678
20430, 1562, 4266, 268, 4261
20431, 4292, 282, 1593, 4289
20432, 2975, 2962, 2690, 2973
20433, 4852, 421, 4853, 2103
20434, 585, 638, 586, 2534
20435, 4643, 1905, 4624, 5719
20436, 4327, 5702, 4333, 5711
20437, 4627, 4648, 1948, 4692
20438, 3032, 3455, 3448, 3453
20439, 2686, 2665, 2943, 2666
20440, 1217, 90, 3633, 3403
20441, 113, 1330, 4027, 5716
20442, 4027, 1330, 4048, 5716
20443, 3480, 4118, 3303, 3520
20444, 5096, 5100, 4752, 5281
20445, 5343, 5142, 5146, 4751
20446, 4908, 2158, 4913, 5513
20447, 922, 1220, 3024, 3437
20448, 3596, 1162, 1153, 3276
20449, 5347, 2182, 458, 5745
20450, 5519, 4800, 2062, 5487
20451, 275, 1569, 4268, 5714
20452, 4278, 1579, 275, 5715
20453, 670, 686, 671, 2950
20454, 2630, 2940, 897, 898
20455, 4137, 4130, 1452, 4078
20456, 4282, 4284, 1555, 4252
20457, 4226, 4272, 4274, 1526
20458, 5492, 4993, 446, 4832
20459, 2997, 2947, 3013, 2981
20460, 2182, 5723, 4929, 5745
20461, 3816, 160, 3308, 3414
20462, 3987, 3957, 4011, 3714
20463, 921, 1219, 920, 3028
20464, 3286, 3308, 3311, 3553
20465, 4500, 1959, 4503, 5732
20466, 4625, 1904, 4643, 5758
20467, 3216, 3212, 3820, 3821
20468, 3329, 3327, 3384, 3592
20469, 3987, 3682, 3951, 3917
20470, 2941, 2997, 678, 2981
20471, 2199, 465, 5557, 4962
20472, 3840, 4042, 3830, 3836
20473, 3752, 3981, 3692, 3959
20474, 955, 3071, 2831, 3056
20475, 118, 151, 1289, 1120
20476, 1122, 4045, 975, 1123
20477, 2723, 2725, 2852, 2864
20478, 4039, 4040, 3834, 4034
20479, 3742, 3937, 3935, 3763
20480, 3104, 3128, 3230, 3267
20481, 4424, 4411, 4416, 5681
20482, 920, 1218, 3549, 919
20483, 4686, 4676, 4648, 5741
20484, 2958, 2646, 2984, 2648
20485, 3257, 3139, 3213, 3267
20486, 3327, 3329, 3513, 3592
20487, 1217, 919, 90, 3403
20488, 4093, 4092, 4138, 1458
20489, 1718, 4304, 4356, 5526
20490, 1643, 1626, 4304, 4356
20491, 4457, 4389, 4393, 5739
20492, 2701, 682, 667, 2702
20493, 3156, 3154, 731, 5699
20494, 1267, 1268, 1183, 3565
20495, 4450, 4445, 1780, 4415
20496, 1166, 1148, 1167, 3279
20497, 96, 4142, 1232, 1113
20498, 2171, 5563, 5601, 4921
20499, 1262, 1181, 3413, 1263
20500, 3864, 3844, 4182, 3859
20501, 5399, 4734, 5341, 5745
20502, 3153, 5699, 3157, 5700
20503, 5243, 2362, 5479, 5272
20504, 5228, 5199, 2346, 5478
20505, 26, 2940, 2630, 898
20506, 5517, 5522, 4799, 5721
20507, 2070, 5576, 5582, 4795
20508, 1219, 3488, 921, 920
20509, 4426, 4567, 1794, 4568
20510, 118, 3680, 3990, 1021
20511, 3639, 3345, 3326, 3610
20512, 3404, 3636, 3419, 3577
20513, 3497, 3484, 4113, 3313
20514, 4510, 5746, 372, 5757
20515, 3715, 3927, 3702, 3701
20516, 1366, 201, 3989, 3704
20517, 355, 356, 352, 5733
20518, 4687, 4659, 4663, 5730
20519, 1988, 4742, 4737, 5322
20520, 5384, 1966, 4741, 4738
20521, 3350, 1469, 167, 3491
20522, 2710, 882, 619, 716
20523, 71, 46, 2846, 2844
20524, 3089, 3105, 3235, 3123
20525, 204, 1485, 184, 5716
20526, 455, 4937, 2173, 5543
20527, 4945, 2195, 4949, 5172
20528, 4950, 4943, 5173, 2008
20529, 5112, 4781, 4783, 2056
20530, 4779, 4782, 1984, 5113
20531, 4893, 4890, 5126, 2146
20532, 4888, 5127, 2001, 4891
20533, 4768, 5158, 4761, 1977
20534, 4763, 2045, 5159, 4766
20535, 4466, 1836, 1766, 342
20536, 3780, 3932, 3656, 3770
20537, 4970, 5588, 424, 4858
20538, 3538, 3348, 3376, 3346
20539, 901, 2948, 674, 902
20540, 2951, 2651, 2953, 2990
20541, 5452, 5099, 5094, 2306
20542, 5145, 2327, 5453, 5140
20543, 1603, 5393, 4315, 1668
20544, 1818, 1762, 4398, 5331
20545, 428, 5581, 4863, 5553
20546, 5185, 4223, 1528, 4275
20547, 4169, 3798, 4173, 1317
20548, 4384, 1734, 4468, 4467
20549, 2670, 2952, 2951, 2953
20550, 270, 208, 248, 5231
20551, 259, 227, 288, 5275
20552, 1251, 173, 1252, 5689
20553, 4962, 465, 5557, 5552
20554, 886, 721, 2931, 887
20555, 3415, 3638, 3298, 3397
20556, 3374, 3314, 3526, 3352
20557, 1178, 1136, 158, 3421
20558, 4758, 377, 2049, 4731
20559, 4757, 379, 4732, 2051
20560, 201, 1281, 3740, 3704
20561, 5589, 5575, 2203, 4966
20562, 1133, 4102, 3807, 987
20563, 3783, 3741, 4012, 3697
20564, 5197, 2352, 5458, 5220
20565, 5264, 5241, 2368, 5459
20566, 4338, 1656, 4335, 5742
20567, 1469, 3389, 3550, 3491
20568, 3374, 3526, 3521, 3352
20569, 3976, 3784, 3703, 3993
20570, 1930, 4586, 4653, 4700
20571, 4582, 1864, 4600, 5718
20572, 934, 3449, 3030, 3454
20573, 3512, 3294, 3324, 3608
20574, 2644, 2667, 3002, 2688
20575, 4137, 4130, 4132, 1452
20576, 4094, 1433, 4095, 4075
20577, 1398, 4062, 4063, 4061
20578, 682, 666, 667, 2702
20579, 3737, 1294, 3872, 3967
20580, 1131, 4100, 4097, 3805
20581, 4097, 1198, 1256, 1255
20582, 4630, 4620, 4634, 5705
20583, 724, 2912, 2857, 723
20584, 3280, 3345, 3347, 3627
20585, 3493, 3299, 3406, 3565
20586, 3986, 3697, 4108, 3871
20587, 3388, 3431, 3634, 3512
20588, 3113, 3252, 3260, 3233
20589, 3044, 3033, 3444, 3453
20590, 1382, 4174, 3799, 5740
20591, 4626, 4645, 4625, 5758
20592, 4305, 4311, 4355, 1688
20593, 1786, 4388, 4394, 4457
20594, 4355, 4310, 4306, 5744
20595, 113, 1337, 1330, 5699
20596, 3637, 3337, 3533, 3532
20597, 3958, 3689, 4015, 3707
20598, 242, 275, 1529, 1505
20599, 4033, 4047, 4041, 3838
20600, 2678, 2649, 2680, 2961
20601, 4867, 2116, 4866, 5600
20602, 1284, 3720, 1367, 5677
20603, 3528, 3306, 3297, 3529
20604, 1183, 3340, 1267, 3565
20605, 5498, 2113, 4869, 5710
20606, 5408, 4283, 1581, 4253
20607, 4227, 1567, 5409, 4273
20608, 2157, 4908, 4909, 5513
20609, 3505, 3335, 3502, 3407
20610, 3321, 3390, 3518, 3368
20611, 3910, 3694, 3695, 1021
20612, 3526, 3521, 3352, 3525
20613, 816, 33, 970, 2816
20614, 4515, 4537, 4547, 5749
20615, 3407, 3287, 3378, 3503
20616, 5201, 1603, 5393, 4315
20617, 4398, 5245, 1818, 5331
20618, 867, 48, 113, 5700
20619, 4299, 1625, 294, 5702
20620, 3485, 3275, 3590, 3646
20621, 4742, 4750, 2020, 5105
20622, 4749, 2027, 5151, 4741
20623, 3816, 3811, 3630, 1202
20624, 3187, 58, 51, 855
20625, 826, 55, 62, 3170
20626, 920, 1219, 1218, 3436
20627, 3380, 3325, 3328, 3510
20628, 3015, 80, 914, 3012
20629, 1967, 4749, 5342, 4741
20630, 4742, 1989, 4750, 5280
20631, 2312, 388, 5119, 4784
20632, 2333, 391, 4767, 5165
20633, 47, 3154, 731, 730
20634, 4752, 5096, 5281, 5318
20635, 5142, 5343, 5380, 4751
20636, 5373, 5414, 5419, 2185
20637, 2106, 5311, 5415, 5418
20638, 2136, 5515, 4884, 4879
20639, 3619, 3550, 3412, 3551
20640, 1783, 4416, 346, 5681
20641, 2956, 2984, 2959, 2673
20642, 2976, 2974, 2950, 2679
20643, 3784, 3731, 3976, 3703
20644, 4961, 4935, 464, 5586
20645, 3966, 3965, 1295, 3869
20646, 585, 638, 639, 3067
20647, 4698, 4697, 4664, 5734
20648, 2632, 656, 648, 2943
20649, 3295, 3628, 3481, 3579
20650, 4178, 1365, 4184, 3863
20651, 2985, 2677, 2984, 2648
20652, 666, 26, 29, 2940
20653, 3071, 3072, 642, 3056
20654, 3223, 3228, 3227, 3124
20655, 3100, 3120, 3229, 3231
20656, 3610, 3384, 3327, 3592
20657, 3529, 3297, 3282, 3296
20658, 3960, 3721, 3744, 3682
20659, 3758, 3991, 3979, 3972
20660, 3314, 3547, 3631, 3542
20661, 3967, 3916, 3658, 3966
20662, 3567, 3561, 3525, 3331
20663, 1706, 1855, 5688, 5706
20664, 1158, 3420, 78, 1157
20665, 4481, 4343, 4335, 5742
20666, 1493, 4165, 4192, 5683
20667, 4651, 4682, 4639, 1954
20668, 71, 46, 2920, 2846
20669, 3302, 3522, 3339, 3301
20670, 676, 904, 3026, 3435
20671, 3839, 3842, 3834, 4034
20672, 2358, 5211, 5212, 5422
20673, 5420, 2374, 5255, 5256
20674, 3129, 3107, 3256, 3238
20675, 3834, 4040, 3830, 3839
20676, 3445, 3460, 3031, 3035
20677, 4006, 1028, 3202, 3773
20678, 3481, 1210, 4120, 3417
20679, 5152, 2333, 391, 4736
20680, 5106, 4735, 388, 2312
20681, 4585, 4588, 4602, 5734
20682, 1452, 4137, 1453, 5684
20683, 5145, 5443, 2328, 5141
20684, 5095, 5099, 5442, 2307
20685, 1273, 3584, 1190, 1272
20686, 4785, 2311, 4792, 4776
20687, 2312, 4784, 4792, 4776
20688, 2204, 4967, 467, 5576
20689, 1029, 3169, 3167, 5725
20690, 3606, 3334, 3594, 3607
20691, 3252, 3113, 3141, 3233
20692, 1269, 3741, 4012, 3783
20693, 5146, 2029, 4754, 4751
20694, 4752, 2022, 4753, 5100
20695, 5483, 437, 5523, 4873
20696, 4622, 4682, 4651, 5735
20697, 3492, 3554, 3563, 3300
20698, 4732, 4729, 1996, 5284
20699, 4730, 1974, 5346, 4731
20700, 2969, 2657, 667, 2658
20701, 900, 673, 3436, 901
20702, 3218, 3094, 3126, 3108
20703, 3862, 3863, 1355, 3852
20704, 1955, 4682, 4639, 4654
20705, 4894, 4885, 4901, 2303
20706, 2302, 4885, 4901, 4892
20707, 4879, 5562, 4876, 2132
20708, 3833, 4033, 3828, 3838
20709, 3610, 3327, 3513, 3592
20710, 280, 288, 261, 4295
20711, 270, 278, 250, 4258
20712, 594, 629, 2598, 2541
20713, 3950, 3751, 3999, 4002
20714, 388, 1982, 5119, 4784
20715, 5165, 391, 4767, 1979
20716, 4941, 4948, 2323, 4956
20717, 2324, 4947, 4941, 4956
20718, 119, 3167, 1030, 5689
20719, 4584, 4589, 4605, 5753
20720, 3417, 3552, 3628, 3387
20721, 3710, 187, 119, 3706
20722, 5378, 5344, 1971, 4745
20723, 4746, 1993, 5316, 5282
20724, 3727, 3769, 3941, 3725
20725, 2332, 4759, 4765, 4774
20726, 4767, 4774, 4759, 2333
20727, 3102, 3103, 3227, 3244
20728, 3449, 3463, 3459, 3030
20729, 713, 41, 714, 3088
20730, 3314, 3526, 3547, 3374
20731, 2974, 2991, 2950, 2679
20732, 3579, 3296, 3282, 3572
20733, 2676, 2973, 2662, 2991
20734, 4024, 1306, 3787, 4023
20735, 4105, 3783, 188, 1467
20736, 3298, 3270, 3620, 3272
20737, 3239, 3091, 3228, 3250
20738, 3090, 3239, 3075, 3265
20739, 337, 5334, 1814, 1765
20740, 1599, 309, 1665, 5396
20741, 3391, 3605, 3546, 3545
20742, 2723, 2725, 2735, 2852
20743, 3568, 3646, 3338, 3428
20744, 5175, 2194, 2343, 4944
20745, 2007, 4946, 5177, 2037
20746, 2055, 5117, 4778, 2318
20747, 1983, 2015, 4780, 5115
20748, 2319, 5129, 4887, 2147
20749, 2046, 2334, 4762, 5162
20750, 1978, 5161, 4764, 2038
20751, 2987, 2657, 2969, 2658
20752, 4099, 1129, 106, 3824
20753, 3273, 3272, 3537, 3271
20754, 2016, 2002, 4889, 5131
20755, 3089, 3261, 3112, 3141
20756, 3372, 3538, 3346, 3539
20757, 3702, 3746, 3928, 3716
20758, 3634, 3598, 3330, 3578
20759, 4627, 1949, 4648, 4645
20760, 582, 581, 691, 3072
20761, 45, 2876, 3169, 5725
20762, 3294, 3372, 3326, 3539
20763, 3254, 3099, 3226, 3230
20764, 3998, 3924, 3956, 3726
20765, 3254, 3242, 3131, 3267
20766, 3336, 3502, 3335, 3407
20767, 215, 1421, 4215, 5683
20768, 224, 4241, 1450, 5684
20769, 3403, 3633, 3567, 3285
20770, 3997, 3928, 3935, 3716
20771, 5200, 5218, 1659, 1670
20772, 1961, 4592, 1866, 5757
20773, 4222, 1418, 4217, 4220
20774, 4246, 4248, 1453, 4243
20775, 3036, 3453, 3447, 3037
20776, 4695, 4681, 4629, 5737
20777, 4946, 4948, 5181, 2006
20778, 4947, 5178, 2193, 4944
20779, 4778, 5121, 4785, 2054
20780, 1982, 4780, 5119, 4784
20781, 4765, 4762, 2047, 5167
20782, 4764, 5165, 4767, 1979
20783, 4887, 4894, 5133, 2148
20784, 921, 1220, 1219, 3434
20785, 196, 3850, 1358, 5750
20786, 3849, 3847, 1350, 3852
20787, 2003, 4889, 4892, 5134
20788, 3291, 3488, 3586, 3402
20789, 5555, 5602, 2119, 4869
20790, 4125, 3482, 3312, 1212
20791, 3338, 3408, 3337, 3637
20792, 3719, 3658, 1294, 3967
20793, 3603, 3515, 1211, 3579
20794, 1960, 1911, 4631, 4636
20795, 3377, 1269, 1184, 1467
20796, 3408, 3338, 3569, 3637
20797, 3130, 3145, 3259, 3078
20798, 5177, 4943, 4946, 2007
20799, 4945, 2194, 5175, 4944
20800, 5117, 4778, 4781, 2055
20801, 4780, 4779, 1983, 5115
20802, 5129, 4890, 4887, 2147
20803, 5161, 4764, 4761, 1978
20804, 4042, 4040, 3830, 4035
20805, 4762, 4763, 2046, 5162
20806, 2173, 4924, 455, 5558
20807, 1641, 1627, 1642, 4354
20808, 1720, 4456, 1723, 1719
20809, 4888, 4889, 2002, 5131
20810, 673, 3436, 3025, 3023
20811, 4686, 4648, 1949, 4645
20812, 4690, 4687, 5754, 5755
20813, 5477, 5228, 5205, 2347
20814, 5272, 5249, 2363, 5476
20815, 3105, 3235, 3250, 3089
20816, 4284, 1555, 1587, 4282
20817, 1575, 4274, 4272, 1526
20818, 4579, 4611, 4578, 5743
20819, 3948, 3689, 3670, 4015
20820, 667, 666, 682, 2983
20821, 2378, 5293, 5446, 5451
20822, 5447, 2407, 5450, 5355
20823, 3744, 3950, 4000, 4010
20824, 1570, 1530, 1571, 1506
20825, 1226, 3451, 925, 926
20826, 4215, 4220, 1520, 5186
20827, 5148, 5460, 2326, 5140
20828, 5461, 5094, 5102, 2305
20829, 5453, 5460, 2409, 5381
20830, 5461, 2380, 5319, 5452
20831, 985, 1131, 984, 3805
20832, 3633, 3475, 1217, 3403
20833, 2665, 2666, 2638, 2998
20834, 3844, 3854, 1347, 3845
20835, 3743, 3958, 1237, 3707
20836, 3456, 3038, 895, 3455
20837, 2072, 5561, 5550, 4808
20838, 4624, 4626, 4643, 5719
20839, 4604, 4589, 4584, 5753
20840, 2630, 897, 665, 898
20841, 3057, 639, 640, 2807
20842, 5261, 1763, 1755, 5246
20843, 1662, 5217, 5202, 1667
20844, 3400, 3536, 3527, 3622
20845, 3341, 3381, 3352, 3567
20846, 3452, 3032, 3448, 3453
20847, 4181, 1343, 3847, 3846
20848, 3445, 3031, 3451, 926
20849, 1478, 4126, 4132, 4146
20850, 4809, 5594, 402, 2084
20851, 2221, 4973, 469, 5593
20852, 4995, 5595, 475, 2233
20853, 1453, 4137, 1452, 4078
20854, 3298, 3566, 3270, 3397
20855, 4608, 4578, 4611, 5743
20856, 3759, 3662, 4001, 3654
20857, 1460, 4137, 4133, 5684
20858, 2976, 2942, 3000, 2642
20859, 5177, 4943, 2007, 2036
20860, 5175, 2342, 2194, 4945
20861, 2014, 1983, 4779, 5115
20862, 2055, 4781, 5117, 2317
20863, 1978, 4761, 5161, 2039
20864, 4888, 2002, 2017, 5131
20865, 2320, 4890, 5129, 2147
20866, 4763, 2335, 2046, 5162
20867, 1948, 4644, 4627, 4692
20868, 1892, 4524, 1963, 4512
20869, 3821, 3264, 1323, 981
20870, 355, 1824, 1811, 5733
20871, 3252, 3112, 3261, 3141
20872, 3936, 3986, 3937, 3742
20873, 2986, 676, 675, 903
20874, 3947, 3729, 3961, 3772
20875, 2649, 2652, 2964, 2650
20876, 4906, 4910, 2153, 5503
20877, 3537, 3566, 3270, 3272
20878, 3230, 3128, 3100, 3231
20879, 663, 662, 895, 2684
20880, 3631, 3544, 3343, 3542
20881, 4480, 1685, 4481, 4343
20882, 3138, 3255, 978, 1126
20883, 4681, 4672, 4652, 5719
20884, 468, 2204, 5491, 5496
20885, 3119, 3260, 3145, 3209
20886, 4446, 1769, 4442, 5738
20887, 2942, 2657, 2996, 2642
20888, 3455, 3448, 3038, 3032
20889, 2800, 21, 642, 3071
20890, 4752, 4747, 2023, 5096
20891, 4748, 2030, 5142, 4751
20892, 2614, 597, 3, 2542
20893, 3497, 3415, 3313, 3396
20894, 1162, 1161, 1153, 3276
20895, 667, 682, 683, 2983
20896, 4803, 2073, 4806, 5724
20897, 3150, 48, 3151, 5699
20898, 3204, 1006, 1134, 3143
20899, 4621, 4638, 4628, 5717
20900, 3388, 3634, 3330, 3578
20901, 3372, 3538, 3376, 3346
20902, 2654, 2973, 2963, 2974
20903, 3345, 3540, 3347, 3627
20904, 3346, 3326, 3539, 3540
20905, 3089, 3235, 3261, 3141
20906, 3437, 3027, 922, 1221
20907, 3732, 4004, 3734, 3733
20908, 679, 3013, 2951, 2952
20909, 4594, 5688, 1855, 5706
20910, 3091, 3129, 3228, 3124
20911, 2647, 646, 2971, 2945
20912, 2943, 2632, 656, 2665
20913, 92, 5725, 44, 5752
20914, 3765, 3701, 3995, 4014
20915, 2988, 675, 2986, 2672
20916, 884, 883, 718, 3248
20917, 4379, 4373, 1692, 5742
20918, 4583, 4602, 4588, 5734
20919, 3507, 3312, 1213, 4125
20920, 5527, 4458, 5532, 1839
20921, 5306, 5456, 395, 2386
20922, 5368, 2415, 394, 5457
20923, 3715, 3997, 3772, 3716
20924, 4031, 3839, 4046, 3831
20925, 3459, 3463, 3447, 3037
20926, 2683, 2660, 2994, 2635
20927, 5304, 4732, 1997, 5284
20928, 5366, 5346, 1975, 4731
20929, 2650, 2686, 2979, 2666
20930, 1379, 4022, 4023, 4171
20931, 3728, 3729, 1370, 3705
20932, 3791, 3787, 1312, 3798
20933, 3715, 3745, 3961, 4014
20934, 1880, 1879, 4510, 4598
20935, 3807, 1133, 987, 986
20936, 4039, 3834, 4028, 4034
20937, 677, 676, 904, 3026
20938, 1220, 921, 3024, 3434
20939, 4726, 1959, 4724, 5732
20940, 3624, 3596, 3276, 3369
20941, 5522, 4802, 4799, 5721
20942, 3623, 3478, 3611, 3375
20943, 2195, 2341, 4949, 5172
20944, 2035, 4950, 5173, 2008
20945, 4782, 2013, 1984, 5113
20946, 2056, 4783, 5112, 2316
20947, 5126, 4893, 2146, 2321
20948, 5127, 2018, 2001, 4891
20949, 1977, 4768, 5158, 2040
20950, 2045, 2336, 5159, 4766
20951, 5332, 1763, 5246, 1816
20952, 5202, 5394, 1601, 1667
20953, 45, 2927, 2876, 5725
20954, 5460, 2409, 5381, 5356
20955, 2380, 5319, 5294, 5461
20956, 3395, 3312, 3507, 3634
20957, 3811, 3630, 1202, 3573
20958, 2966, 2965, 2652, 2964
20959, 208, 209, 5367, 1403
20960, 226, 227, 5305, 1462
20961, 3375, 3524, 3304, 3289
20962, 2974, 2654, 2973, 2662
20963, 90, 919, 3010, 917
20964, 1206, 3613, 1277, 1207
20965, 3239, 3091, 3129, 3228
20966, 3350, 3389, 1469, 3491
20967, 4346, 4333, 4327, 5702
20968, 5121, 4785, 4792, 4778
20969, 4784, 4780, 5119, 4792
20970, 3945, 1296, 4106, 3971
20971, 671, 2950, 2689, 2679
20972, 2053, 5416, 523, 4787
20973, 2048, 4769, 526, 5417
20974, 1294, 3737, 3719, 3967
20975, 995, 998, 3125, 3211
20976, 4316, 1604, 5392, 1669
20977, 1819, 1761, 4399, 5330
20978, 1530, 1536, 4238, 1511
20979, 1509, 4212, 1511, 1506
20980, 4621, 373, 1910, 4631
20981, 3561, 3633, 3616, 3285
20982, 1517, 4212, 1511, 1509
20983, 1536, 1547, 4238, 1511
20984, 1465, 4089, 96, 4142
20985, 4094, 1456, 4140, 4095
20986, 1406, 4201, 4062, 4061
20987, 5481, 5315, 5479, 2388
20988, 2417, 5480, 5377, 5478
20989, 2664, 2673, 2959, 2661
20990, 3386, 3605, 3391, 3626
20991, 5464, 2408, 5460, 5356
20992, 2379, 5461, 5294, 5465
20993, 3569, 3292, 3558, 3382
20994, 293, 5530, 1624, 4298
20995, 3373, 1147, 1168, 3483
20996, 4467, 1766, 4404, 4405
20997, 48, 2913, 731, 5700
20998, 3475, 919, 1217, 3403
20999, 3074, 717, 42, 3205
21000, 2185, 4929, 4931, 5723
21001, 2106, 4854, 4852, 5722
21002, 2966, 2965, 2688, 2652
21003, 1739, 4384, 1734, 4468
21004, 5564, 5562, 4879, 2132
21005, 2938, 79, 3022, 3438
21006, 3042, 3459, 3033, 3037
21007, 1298, 4122, 178, 3782
21008, 1232, 96, 1113, 5725
21009, 4458, 4455, 346, 1825
21010, 4356, 1704, 319, 4353
21011, 3679, 3938, 3999, 4002
21012, 196, 4183, 1358, 3850
21013, 4038, 4032, 1332, 3829
21014, 572, 619, 2526, 716
21015, 3436, 920, 1219, 3025
21016, 2985, 2653, 2974, 2685
21017, 4894, 4901, 4887, 5133
21018, 4892, 4889, 4901, 5134
21019, 3404, 3390, 3328, 3609
21020, 3604, 3602, 1205, 3480
21021, 3636, 3404, 3609, 3577
21022, 4265, 1564, 4266, 4336
21023, 4289, 4288, 4419, 1592
21024, 4388, 4434, 329, 1748
21025, 2638, 654, 650, 2946
21026, 5577, 2150, 4910, 5570
21027, 5320, 1990, 4753, 5281
21028, 4754, 5382, 5343, 1968
21029, 4956, 4948, 5181, 4946
21030, 5178, 4947, 4956, 4944
21031, 311, 1673, 4318, 4349
21032, 3666, 3911, 3902, 3916
21033, 1009, 868, 112, 732
21034, 3921, 3758, 3736, 3725
21035, 4694, 4689, 4683, 5753
21036, 3601, 1167, 1148, 3279
21037, 229, 1461, 4142, 4133
21038, 3732, 3870, 4004, 3733
21039, 1759, 1751, 5269, 5244
21040, 1658, 5225, 5200, 1671
21041, 5512, 5497, 4924, 2174
21042, 4183, 3850, 3864, 5750
21043, 3794, 4020, 4021, 3797
21044, 273, 4381, 1565, 1597
21045, 4383, 1609, 290, 1625
21046, 1594, 285, 1812, 4449
21047, 1452, 4132, 4137, 5684
21048, 3338, 3408, 3569, 3382
21049, 3253, 985, 3251, 1132
21050, 5167, 4765, 4762, 4774
21051, 5165, 4767, 4774, 4764
21052, 3744, 3669, 4010, 3918
21053, 3788, 1310, 3795, 3797
21054, 340, 4433, 4401, 1767
21055, 4209, 1419, 4213, 4220
21056, 1452, 4239, 4246, 4235
21057, 3352, 3314, 3526, 3381
21058, 3765, 3953, 3745, 4014
21059, 4253, 5408, 4283, 4251
21060, 5409, 4225, 4227, 4273
21061, 4685, 4655, 1927, 4591
21062, 3459, 3044, 3033, 3037
21063, 4369, 4368, 1598, 5704
21064, 26, 665, 3039, 898
21065, 4445, 1823, 4439, 5707
21066, 1445, 4153, 4152, 4082
21067, 4070, 1428, 4164, 4163
21068, 2982, 2634, 2678, 2639
21069, 5406, 1418, 206, 1502
21070, 5407, 1533, 219, 1453
21071, 3578, 3401, 3293, 3562
21072, 3566, 3537, 3620, 3272
21073, 2689, 2999, 671, 2675
21074, 3529, 3296, 3579, 3572
21075, 3141, 3235, 3252, 3233
21076, 647, 646, 658, 2945
21077, 1002, 991, 1003, 3210
21078, 2070, 5582, 5567, 4804
21079, 3833, 1332, 4028, 4032
21080, 5396, 1600, 309, 4314
21081, 5334, 4396, 337, 1815
21082, 3515, 3518, 3390, 3368
21083, 921, 3488, 3291, 3402
21084, 929, 3038, 3448, 3032
21085, 3729, 3962, 3764, 3771
21086, 3845, 3853, 1348, 3846
21087, 1786, 1748, 4388, 5739
21088, 3230, 3100, 3229, 3231
21089, 3522, 3517, 3516, 3290
21090, 5536, 5535, 5530, 5711
21091, 3320, 3356, 3528, 3536
21092, 4648, 4676, 4678, 5741
21093, 975, 3074, 1123, 976
21094, 3261, 3083, 3265, 3089
21095, 580, 581, 21, 709
21096, 2630, 665, 26, 898
21097, 4688, 4690, 5732, 5755
21098, 2932, 882, 619, 2710
21099, 4002, 3719, 3938, 3967
21100, 3306, 3320, 3356, 3528
21101, 3040, 3030, 3446, 3454
21102, 3515, 3519, 3282, 3579
21103, 3694, 3698, 3749, 3990
21104, 4950, 5173, 5174, 2035
21105, 5172, 2341, 4949, 5176
21106, 5113, 4782, 2013, 5114
21107, 5116, 5112, 4783, 2316
21108, 5127, 5128, 2018, 4891
21109, 4893, 5126, 5130, 2321
21110, 5160, 5158, 4768, 2040
21111, 2336, 5163, 5159, 4766
21112, 873, 2912, 2876, 5752
21113, 983, 3804, 3806, 4101
21114, 2945, 658, 647, 2668
21115, 3583, 3642, 1468, 3323
21116, 74, 45, 2845, 3198
21117, 2061, 4801, 4807, 5709
21118, 3113, 3214, 3111, 3130
21119, 3476, 1253, 165, 3573
21120, 3634, 3431, 3312, 3508
21121, 3584, 3492, 3398, 1272
21122, 4015, 3905, 3958, 3707
21123, 1114, 3680, 3694, 3990
21124, 3326, 3632, 3294, 3539
21125, 3303, 3521, 1205, 3480
21126, 3855, 3851, 3857, 3848
21127, 1134, 3801, 107, 1006
21128, 4000, 3687, 3688, 3949
21129, 3701, 3715, 3927, 4014
21130, 4882, 5578, 5569, 2141
21131, 4206, 4218, 4214, 4210
21132, 4240, 4232, 4236, 4244
21133, 2640, 2956, 2637, 2673
21134, 3670, 3689, 3688, 4015
21135, 1197, 1196, 3281, 3548
21136, 3144, 3258, 3229, 3120
21137, 1294, 3658, 1295, 3966
21138, 4130, 4137, 4138, 4078
21139, 1565, 247, 273, 1597
21140, 1812, 258, 285, 1594
21141, 4122, 1298, 3946, 3873
21142, 1114, 3694, 3749, 3990
21143, 1194, 1279, 3422, 5748
21144, 3428, 3568, 3557, 3382
21145, 3808, 1257, 4100, 1199
21146, 3998, 3731, 3651, 3726
21147, 3503, 3620, 3537, 3272
21148, 4729, 4732, 379, 2051
21149, 4730, 2049, 377, 4731
21150, 3961, 3927, 3715, 4014
21151, 3377, 3406, 1269, 3493
21152, 3753, 169, 1373, 3703
21153, 1124, 3840, 976, 977
21154, 3666, 3719, 3717, 3911
21155, 3518, 3404, 3321, 3577
21156, 3107, 3256, 3239, 3129
21157, 4795, 5502, 5508, 2066
21158, 3462, 3039, 936, 3443
21159, 5202, 5226, 1663, 1666
21160, 5270, 1756, 1764, 5246
21161, 993, 3208, 3109, 3080
21162, 3817, 3079, 104, 979
21163, 1748, 4421, 4417, 5707
21164, 2852, 2735, 2753, 2851
21165, 3520, 3303, 3521, 3525
21166, 4337, 4334, 1673, 5704
21167, 4402, 4467, 4405, 4406
21168, 3367, 3408, 3292, 3487
21169, 3255, 3094, 3209, 3218
21170, 1453, 4088, 4137, 4078
21171, 2244, 5660, 487, 5584
21172, 2087, 410, 5583, 5646
21173, 3546, 3553, 3311, 3387
21174, 4920, 5566, 5601, 2170
21175, 2638, 650, 655, 2998
21176, 5043, 5082, 494, 2257
21177, 2266, 500, 5085, 5052
21178, 2235, 5019, 480, 5070
21179, 2275, 5061, 506, 5088
21180, 513, 2286, 5073, 5091
21181, 3580, 1198, 3292, 3487
21182, 2677, 2996, 3000, 2985
21183, 3598, 3493, 3299, 3555
21184, 1196, 3476, 3626, 3548
21185, 3260, 3130, 3113, 3145
21186, 428, 5581, 2113, 4863
21187, 3658, 3719, 3666, 3916
21188, 3519, 3529, 3282, 3579
21189, 1167, 1147, 1168, 3373
21190, 3379, 3391, 3546, 3545
21191, 3294, 3632, 3273, 3372
21192, 4926, 458, 2182, 5745
21193, 1418, 4222, 1419, 4220
21194, 4248, 1452, 4246, 1453
21195, 3380, 3328, 3277, 3511
21196, 3437, 922, 1220, 1221
21197, 3704, 3989, 1366, 3975
21198, 4510, 4501, 372, 5746
21199, 3270, 3566, 3620, 3272
21200, 3036, 3044, 3453, 3037
21201, 2996, 2657, 2987, 2970
21202, 4965, 5508, 5502, 2206
21203, 4785, 4792, 2311, 5121
21204, 5119, 2312, 4784, 4792
21205, 4863, 2113, 4861, 5685
21206, 664, 2994, 896, 897
21207, 2950, 671, 670, 2679
21208, 905, 643, 27, 2937
21209, 2845, 45, 74, 2843
21210, 3836, 977, 4042, 1125
21211, 2634, 2982, 2981, 2955
21212, 2202, 5592, 5598, 5724
21213, 3515, 1211, 3277, 3509
21214, 3226, 3225, 3229, 3098
21215, 1970, 4745, 5344, 4748
21216, 4747, 1992, 4746, 5282
21217, 1713, 1842, 1862, 4602
21218, 3639, 3326, 3345, 3540
21219, 2357, 5212, 5204, 5438
21220, 5439, 2373, 5256, 5248
21221, 3078, 1124, 976, 977
21222, 2946, 2973, 2690, 2676
21223, 1220, 3488, 3585, 921
21224, 3541, 3505, 3416, 3606
21225, 1364, 4181, 3862, 3861
21226, 3835, 4046, 3839, 3831
21227, 4170, 3794, 3797, 1314
21228, 3314, 3631, 3526, 3381
21229, 723, 114, 1016, 3166
21230, 4928, 4927, 4932, 5745
21231, 3703, 3753, 169, 1242
21232, 3208, 3244, 3102, 3136
21233, 4932, 2186, 4734, 5745
21234, 4040, 4039, 3830, 4035
21235, 1518, 1519, 4211, 1507
21236, 1538, 1546, 1545, 4237
21237, 4901, 4894, 2303, 5133
21238, 3157, 730, 46, 5700
21239, 4901, 2302, 4892, 5134
21240, 3550, 1180, 1262, 3619
21241, 2463, 584, 585, 2539
21242, 2980, 2999, 2950, 2689
21243, 3960, 4000, 3688, 3949
21244, 2098, 5583, 416, 5646
21245, 485, 5660, 2243, 5584
21246, 3840, 3830, 4040, 3839
21247, 892, 1223, 79, 889
21248, 3533, 3337, 3319, 3532
21249, 5221, 5466, 2350, 5196
21250, 2366, 5265, 5240, 5467
21251, 3476, 1196, 1254, 3548
21252, 4046, 3835, 4045, 3831
21253, 5185, 4223, 4275, 1416
21254, 656, 649, 2943, 2665
21255, 3594, 3593, 3623, 3392
21256, 1399, 4071, 4064, 4060
21257, 4076, 1434, 4093, 4083
21258, 2323, 4948, 5181, 4956
21259, 4947, 2324, 5178, 4956
21260, 659, 658, 646, 2647
21261, 4305, 1656, 302, 4350
21262, 4037, 3827, 1011, 3832
21263, 3608, 3632, 3326, 3539
21264, 3395, 3565, 3406, 3598
21265, 3987, 3917, 3974, 3672
21266, 4932, 4928, 4734, 4756
21267, 4055, 1401, 4066, 4059
21268, 4092, 4088, 1436, 4078
21269, 4221, 4217, 1514, 5410
21270, 4247, 5411, 1542, 4243
21271, 4666, 4682, 4654, 5717
21272, 4355, 4307, 1655, 4308
21273, 4390, 1749, 4391, 4457
21274, 2657, 668, 2942, 2969
21275, 4765, 5167, 2332, 4774
21276, 2333, 4767, 4774, 5165
21277, 3538, 3348, 3346, 3618
21278, 1254, 1197, 1255, 3548
21279, 1191, 3584, 1190, 1273
21280, 3301, 3302, 3522, 3290
21281, 553, 680, 599, 2693
21282, 3642, 166, 4113, 1468
21283, 5214, 5211, 2359, 5423
21284, 5255, 2375, 5421, 5258
21285, 5121, 4778, 2318, 2054
21286, 2015, 1982, 4780, 5119
21287, 2037, 4946, 5181, 2006
21288, 5178, 2343, 2193, 4944
21289, 4764, 5165, 1979, 2038
21290, 4762, 2334, 2047, 5167
21291, 2319, 4887, 5133, 2148
21292, 4099, 1128, 1129, 3824
21293, 1245, 3466, 1228, 928
21294, 2003, 2016, 4889, 5134
21295, 3789, 4020, 4021, 1303
21296, 3936, 3934, 3994, 3746
21297, 1182, 4123, 178, 1183
21298, 3212, 3246, 3264, 3821
21299, 3314, 3309, 3542, 3310
21300, 3981, 3970, 3929, 3752
21301, 879, 67, 1111, 881
21302, 4688, 4656, 4687, 5755
21303, 4507, 4504, 4502, 5726
21304, 4591, 4655, 1927, 4584
21305, 3998, 3651, 3731, 1233
21306, 1169, 3280, 3600, 1145
21307, 4707, 4510, 1879, 4598
21308, 4097, 3809, 984, 3805
21309, 1366, 3929, 3650, 3975
21310, 4292, 4293, 4425, 5713
21311, 4341, 4262, 4261, 5712
21312, 3319, 3318, 3530, 3532
21313, 1144, 3591, 3361, 3489
21314, 1166, 3490, 1148, 3279
21315, 3560, 3525, 3561, 3331
21316, 3455, 663, 895, 896
21317, 3230, 3254, 3104, 3267
21318, 2945, 2647, 658, 2668
21319, 3529, 3306, 3297, 3296
21320, 3355, 3536, 3588, 3589
21321, 2661, 2959, 2968, 2970
21322, 3229, 3102, 3244, 3144
21323, 3510, 3512, 3324, 3608
21324, 3252, 3214, 3113, 3260
21325, 4045, 975, 1123, 3831
21326, 3564, 3566, 3397, 3554
21327, 3550, 1469, 177, 3643
21328, 3117, 3236, 3251, 3118
21329, 3335, 3334, 3606, 3305
21330, 670, 669, 685, 2976
21331, 4099, 106, 3819, 3824
21332, 3639, 3325, 3326, 3608
21333, 26, 681, 2693, 2698
21334, 1570, 1571, 4224, 1506
21335, 1570, 1530, 4250, 1571
21336, 4115, 3948, 3874, 1192
21337, 3295, 3379, 3546, 3572
21338, 2944, 2660, 2967, 2995
21339, 3497, 4113, 166, 3313
21340, 2051, 379, 4729, 4788
21341, 2049, 377, 4771, 4730
21342, 4307, 1707, 4311, 4308
21343, 1828, 4394, 4391, 4390
21344, 4389, 4388, 1748, 5739
21345, 4695, 4681, 1952, 4641
21346, 3304, 3594, 3334, 3607
21347, 4100, 985, 1132, 3808
21348, 925, 3451, 3031, 926
21349, 3607, 3334, 3304, 3305
21350, 3402, 921, 3488, 920
21351, 70, 152, 865, 864
21352, 4054, 4069, 211, 1413
21353, 4087, 1466, 230, 4081
21354, 1144, 3361, 1171, 1170
21355, 983, 1130, 1129, 4101
21356, 4274, 276, 4229, 1526
21357, 276, 1555, 4284, 4255
21358, 4629, 4641, 4624, 5737
21359, 3599, 3294, 3293, 3512
21360, 4060, 4064, 1400, 4059
21361, 1435, 4093, 4092, 4076
21362, 4903, 4905, 2160, 5566
21363, 1221, 922, 3585, 3570
21364, 5639, 5007, 5003, 5632
21365, 4821, 4817, 5611, 5604
21366, 4985, 4981, 5625, 5618
21367, 1253, 1196, 1254, 3476
21368, 3414, 3269, 3333, 3619
21369, 884, 719, 885, 3234
21370, 668, 683, 684, 2969
21371, 3758, 3734, 3991, 3733
21372, 2179, 4923, 5503, 5501
21373, 4638, 1955, 4639, 4654
21374, 5009, 477, 502, 5054
21375, 482, 404, 5021, 4823
21376, 4987, 471, 496, 5045
21377, 847, 53, 64, 3172
21378, 3120, 3100, 3128, 3231
21379, 3315, 3553, 3311, 3546
21380, 3651, 1244, 3784, 1233
21381, 4690, 4687, 4663, 5754
21382, 801, 36, 2817, 955
21383, 5551, 5568, 5543, 5709
21384, 3298, 3501, 3620, 3638
21385, 3905, 3760, 1237, 3707
21386, 1795, 339, 4401, 4407
21387, 4747, 4752, 1991, 5318
21388, 5380, 4748, 4751, 1969
21389, 5489, 5498, 5520, 5710
21390, 843, 1053, 3183, 772
21391, 1064, 832, 3184, 783
21392, 4685, 4711, 4684, 5759
21393, 3874, 3948, 3670, 3949
21394, 4799, 5576, 5550, 2071
21395, 2069, 399, 5494, 4802
21396, 3783, 1297, 188, 1467
21397, 3042, 3033, 3459, 3458
21398, 1570, 276, 243, 4229
21399, 1570, 254, 276, 4255
21400, 687, 686, 671, 2696
21401, 3584, 3563, 3642, 3398
21402, 4101, 4099, 3804, 1254
21403, 1623, 4299, 4333, 4330
21404, 717, 3205, 3111, 3248
21405, 844, 1052, 3185, 771
21406, 1065, 831, 3186, 784
21407, 3476, 3386, 1196, 3626
21408, 3300, 3554, 3397, 1188
21409, 3874, 1191, 181, 4112
21410, 5603, 2241, 4810, 4826
21411, 872, 3149, 736, 19
21412, 5251, 5239, 2364, 5473
21413, 5207, 5195, 5472, 2348
21414, 4046, 4040, 3839, 4031
21415, 4682, 4696, 4651, 5735
21416, 3271, 3293, 3401, 3562
21417, 3534, 3535, 3523, 3302
21418, 683, 682, 667, 2701
21419, 4365, 4321, 1715, 1674
21420, 1822, 4439, 1823, 5707
21421, 1599, 4369, 1598, 5704
21422, 654, 650, 655, 2638
21423, 4305, 1656, 1688, 5744
21424, 1536, 1530, 245, 1511
21425, 1511, 245, 1509, 1506
21426, 5342, 5382, 4749, 1967
21427, 5320, 4750, 1989, 5280
21428, 3031, 3043, 3034, 3451
21429, 3522, 3534, 3523, 3302
21430, 3745, 3715, 3961, 3772
21431, 4447, 1811, 351, 1824
21432, 2035, 5174, 4950, 2009
21433, 2341, 2196, 4949, 5176
21434, 2057, 5116, 4783, 2316
21435, 4782, 1985, 2013, 5114
21436, 2000, 2018, 5128, 4891
21437, 4893, 5130, 2145, 2321
21438, 1976, 5160, 4768, 2040
21439, 5163, 2336, 2044, 4766
21440, 4587, 4582, 4600, 5718
21441, 2935, 884, 883, 718
21442, 1269, 1184, 3406, 3377
21443, 3451, 3472, 1225, 1226
21444, 3485, 1140, 3275, 1175
21445, 4680, 4692, 4678, 5731
21446, 3679, 3737, 1272, 3938
21447, 357, 1867, 4493, 1705
21448, 4913, 446, 2159, 5512
21449, 1277, 3613, 1278, 1207
21450, 4002, 3717, 3719, 3911
21451, 1199, 1257, 4100, 1256
21452, 3259, 3145, 3260, 3078
21453, 2751, 2880, 2863, 2744
21454, 81, 894, 1231, 3020
21455, 3554, 3566, 3397, 1188
21456, 5554, 465, 5557, 2199
21457, 2162, 4911, 5558, 5574
21458, 1196, 165, 3386, 3476
21459, 1298, 3671, 3771, 3946
21460, 243, 245, 254, 1506
21461, 3650, 3929, 3720, 3752
21462, 3328, 3390, 3277, 3511
21463, 2995, 2659, 2664, 2968
21464, 3752, 3692, 3762, 3959
21465, 3500, 3502, 3607, 3305
21466, 2635, 664, 665, 897
21467, 1468, 3642, 3396, 3323
21468, 680, 26, 681, 2693
21469, 1184, 1268, 1269, 3565
21470, 1547, 1536, 245, 1511
21471, 1511, 245, 1517, 1509
21472, 2998, 2638, 650, 2946
21473, 1294, 4017, 3872, 3967
21474, 623, 624, 2931, 2712
21475, 2673, 2640, 2984, 2648
21476, 1956, 4638, 4632, 4668
21477, 1253, 3815, 4099, 1254
21478, 4882, 2139, 5504, 4878
21479, 1410, 4196, 4197, 4055
21480, 3395, 3312, 3634, 3388
21481, 2975, 2638, 2666, 2998
21482, 1461, 4089, 229, 4142
21483, 3390, 3518, 3515, 3511
21484, 1261, 1180, 3269, 3619
21485, 4964, 5508, 2206, 5509
21486, 2976, 3000, 2631, 2642
21487, 3282, 3295, 3579, 3572
21488, 3403, 3567, 3341, 3285
21489, 4104, 3802, 164, 3803
21490, 1022, 118, 3153, 5716
21491, 3205, 1122, 3074, 1123
21492, 4501, 4500, 4503, 5746
21493, 3453, 3452, 3032, 3036
21494, 1530, 254, 245, 1506
21495, 3779, 3774, 1279, 1194
21496, 646, 645, 659, 2971
21497, 990, 1004, 1003, 3236
21498, 2672, 2988, 675, 2667
21499, 549, 551, 671, 2457
21500, 3392, 3623, 3524, 3375
21501, 1188, 3479, 3566, 1187
21502, 4799, 5522, 5517, 2068
21503, 3322, 3623, 3392, 3375
21504, 3110, 992, 3243, 1002
21505, 3621, 3560, 3561, 3307
21506, 3109, 3240, 3135, 3208
21507, 3613, 3418, 1206, 3520
21508, 4313, 1606, 5389, 1671
21509, 3415, 3399, 3498, 3313
21510, 3686, 3755, 3758, 3972
21511, 1555, 1554, 4282, 4252
21512, 4272, 4226, 1527, 1526
21513, 3414, 3816, 160, 3822
21514, 3534, 3522, 3629, 3339
21515, 1250, 233, 1470, 172
21516, 1960, 4725, 371, 5726
21517, 3835, 4050, 4046, 4036
21518, 993, 1000, 3208, 1001
21519, 656, 649, 648, 2943
21520, 1272, 1190, 1273, 3938
21521, 5098, 2023, 4747, 5096
21522, 5142, 5144, 2030, 4748
21523, 4113, 1275, 3642, 1468
21524, 582, 641, 583, 2576
21525, 4789, 5114, 5111, 5118
21526, 5116, 5120, 4786, 5111
21527, 1160, 1161, 3357, 1154
21528, 4031, 4046, 4045, 3831
21529, 1173, 1141, 3355, 3588
21530, 5554, 465, 2199, 5589
21531, 3329, 3609, 3513, 3592
21532, 3799, 3794, 1308, 3790
21533, 4120, 167, 3640, 3417
21534, 4173, 192, 4167, 1495
21535, 3527, 3321, 3363, 3577
21536, 1174, 3275, 3589, 1140
21537, 4417, 4427, 1787, 4565
21538, 1199, 3581, 1257, 3580
21539, 3040, 3446, 3460, 3454
21540, 883, 2932, 2936, 717
21541, 4966, 465, 5589, 2199
21542, 2667, 2672, 2988, 2972
21543, 4369, 1701, 4342, 1868
21544, 4343, 1693, 4379, 1847
21545, 3327, 3513, 3325, 3639
21546, 3278, 3477, 1172, 1142
21547, 4024, 3791, 190, 4168
21548, 5341, 5384, 4727, 1965
21549, 1987, 4728, 5279, 5322
21550, 3028, 674, 3434, 3025
21551, 3519, 3321, 3518, 3368
21552, 4012, 4005, 3937, 3741
21553, 4526, 1891, 366, 4721
21554, 1147, 1167, 3601, 3373
21555, 4953, 5179, 5174, 5171
21556, 5176, 5180, 4951, 5171
21557, 5164, 4772, 5160, 5156
21558, 5166, 4770, 5156, 5163
21559, 3209, 3260, 3145, 3078
21560, 2970, 2677, 2661, 2648
21561, 1970, 5344, 5380, 4748
21562, 4747, 1992, 5282, 5318
21563, 3694, 3681, 3695, 1021
21564, 4510, 4707, 4501, 5746
21565, 4607, 322, 359, 1940
21566, 975, 4045, 3837, 3831
21567, 3434, 3024, 674, 3028
21568, 671, 686, 687, 2950
21569, 4424, 344, 4472, 5538
21570, 3525, 3352, 3526, 3567
21571, 4579, 4576, 4611, 5743
21572, 1262, 176, 1181, 1263
21573, 3718, 1248, 1239, 1249
21574, 3490, 3615, 3279, 3394
21575, 3625, 3395, 1213, 3507
21576, 3144, 3229, 3098, 3100
21577, 3296, 3379, 3295, 3572
21578, 639, 584, 640, 2539
21579, 715, 712, 2708, 722
21580, 312, 1675, 4318, 4324
21581, 5128, 5124, 5132, 4898
21582, 5135, 4896, 5124, 5130
21583, 3402, 3488, 3549, 920
21584, 3844, 4182, 1340, 3850
21585, 4108, 3783, 4105, 3871
21586, 4299, 4333, 4330, 5702
21587, 675, 2986, 903, 2988
21588, 205, 4073, 4057, 4058
21589, 218, 4091, 4090, 4085
21590, 3355, 3356, 3536, 3589
21591, 3102, 3109, 3244, 3208
21592, 3393, 3268, 906, 3587
21593, 2934, 621, 574, 2935
21594, 601, 555, 2701, 2700
21595, 3346, 3345, 3326, 3540
21596, 5205, 5207, 5474, 2347
21597, 2363, 5249, 5251, 5475
21598, 4041, 1013, 3828, 3838
21599, 3339, 3629, 3342, 3301
21600, 3346, 3326, 3372, 3539
21601, 3837, 3835, 4030, 1015
21602, 5410, 1514, 4221, 1503
21603, 1542, 1532, 5411, 4247
21604, 4669, 4665, 4670, 5736
21605, 1255, 1197, 3487, 3548
21606, 1169, 1170, 3280, 1145
21607, 4292, 4291, 4293, 5713
21608, 4261, 4262, 4260, 5712
21609, 4120, 3628, 3481, 3417
21610, 726, 2924, 2917, 727
21611, 3002, 2977, 2644, 2989
21612, 3250, 3084, 3105, 3089
21613, 5502, 5496, 4967, 2205
21614, 4870, 431, 5523, 2120
21615, 4782, 5123, 4777, 5114
21616, 4783, 4777, 5123, 5116
21617, 46, 1022, 3157, 5700
21618, 3497, 166, 3642, 3313
21619, 1419, 4192, 4165, 5683
21620, 3454, 934, 945, 944
21621, 28, 678, 2663, 2941
21622, 4090, 4141, 1456, 4095
21623, 4202, 4062, 4057, 1406
21624, 1230, 930, 3467, 1231
21625, 3835, 4030, 1014, 4036
21626, 3966, 1294, 4017, 4106
21627, 3775, 1191, 181, 3874
21628, 3304, 3524, 3594, 3607
21629, 3337, 3533, 3338, 3637
21630, 3629, 3611, 3342, 3301
21631, 1393, 155, 3814, 1126
21632, 1958, 4499, 4504, 4500
21633, 4066, 1400, 4064, 4059
21634, 4092, 4078, 1435, 4076
21635, 2964, 2652, 2966, 2993
21636, 3250, 3239, 3084, 3265
21637, 3449, 3463, 3030, 3454
21638, 3697, 3986, 4012, 3871
21639, 3240, 3227, 3238, 3103
21640, 5584, 487, 2244, 4994
21641, 5583, 4830, 410, 2087
21642, 2852, 2853, 2735, 2851
21643, 2243, 4993, 5492, 4832
21644, 5016, 5493, 4829, 2098
21645, 4760, 5160, 5168, 4768
21646, 4760, 5163, 4766, 5168
21647, 3627, 3347, 3280, 3600
21648, 4955, 5170, 5177, 4946
21649, 4944, 5170, 5175, 4955
21650, 3148, 42, 716, 882
21651, 1502, 1515, 4217, 5410
21652, 5411, 1533, 1541, 4243
21653, 3460, 3465, 3034, 3442
21654, 3163, 3192, 1120, 1022
21655, 1658, 5200, 1605, 1671
21656, 1759, 1751, 5244, 1820
21657, 3521, 3303, 3374, 3352
21658, 4949, 5176, 4942, 5182
21659, 4942, 5174, 4950, 5182
21660, 3759, 4001, 3986, 3971
21661, 1009, 868, 732, 111
21662, 5110, 5117, 4778, 4790
21663, 4780, 5115, 5110, 4790
21664, 4724, 5746, 5732, 5755
21665, 3954, 3657, 3738, 4016
21666, 991, 1003, 3210, 3101
21667, 1233, 169, 3784, 3993
21668, 3717, 3751, 3687, 3950
21669, 3553, 3546, 3552, 3387
21670, 1718, 295, 4304, 5526
21671, 48, 867, 2913, 5700
21672, 3349, 1279, 3494, 3422
21673, 4218, 4216, 4210, 4211
21674, 4236, 4237, 4242, 4244
21675, 2696, 686, 670, 2697
21676, 3626, 3281, 1196, 3548
21677, 3478, 3623, 3322, 3375
21678, 3303, 1206, 4118, 1205
21679, 1212, 1211, 4124, 3603
21680, 3679, 3775, 3751, 3999
21681, 2656, 2655, 2991, 2980
21682, 977, 1124, 4042, 1125
21683, 5407, 1541, 1533, 4245
21684, 4219, 5406, 1515, 1502
21685, 1966, 5342, 5384, 4741
21686, 1988, 4742, 5322, 5280
21687, 1293, 4115, 183, 1193
21688, 1778, 4439, 1920, 4427
21689, 4426, 4442, 1921, 1770
21690, 3262, 3240, 3135, 3109
21691, 4069, 210, 5404, 1413
21692, 5405, 1466, 223, 4081
21693, 3558, 3557, 3568, 3382
21694, 4637, 4710, 4511, 1874
21695, 4305, 4306, 1656, 5744
21696, 2324, 5178, 525, 4947
21697, 4887, 4899, 5129, 5125
21698, 2303, 4894, 522, 5133
21699, 191, 3791, 3798, 4166
21700, 4889, 4899, 5125, 5131
21701, 3256, 3146, 3125, 3211
21702, 2241, 4810, 2077, 5609
21703, 2214, 2263, 4974, 5623
21704, 2272, 2226, 5637, 4996
21705, 1191, 3323, 3582, 4114
21706, 5136, 4886, 5128, 4891
21707, 4886, 5136, 5130, 4893
21708, 1131, 1130, 984, 4097
21709, 3873, 178, 3782, 3653
21710, 1172, 3477, 3362, 1143
21711, 4762, 4773, 5162, 5157
21712, 5161, 5157, 4773, 4764
21713, 220, 1553, 4285, 5184
21714, 4050, 3842, 3835, 4046
21715, 3970, 3690, 3700, 3752
21716, 3072, 691, 582, 3056
21717, 348, 1921, 4426, 4568
21718, 654, 651, 2946, 2655
21719, 1471, 4127, 4149, 4147
21720, 4160, 1486, 4158, 4185
21721, 3782, 3671, 3873, 3653
21722, 3572, 3296, 3379, 3531
21723, 2646, 2984, 2648, 2963
21724, 150, 3202, 1118, 3773
21725, 3110, 992, 1002, 991
21726, 892, 1223, 889, 3420
21727, 4132, 1452, 4154, 5684
21728, 3619, 3412, 3333, 3551
21729, 3488, 1219, 3549, 920
21730, 3521, 3547, 3526, 3374
21731, 3132, 3240, 3238, 3103
21732, 718, 717, 2935, 2711
21733, 3868, 3778, 4016, 4011
21734, 5321, 5293, 2378, 5451
21735, 2407, 5450, 5355, 5383
21736, 2628, 583, 641, 2576
21737, 3539, 3326, 3639, 3540
21738, 3398, 3492, 4111, 1190
21739, 2997, 678, 3012, 2941
21740, 3636, 3329, 3404, 3419
21741, 4042, 4043, 3836, 1125
21742, 5114, 5111, 4777, 4789
21743, 4786, 4777, 5116, 5111
21744, 934, 945, 3449, 3454
21745, 1351, 3855, 3864, 3859
21746, 3435, 904, 3026, 3432
21747, 663, 3038, 3041, 3455
21748, 2692, 671, 670, 2696
21749, 3506, 3273, 3632, 3372
21750, 4320, 4365, 4322, 1674
21751, 5388, 1607, 310, 1672
21752, 5326, 1758, 336, 1822
21753, 3125, 3245, 3256, 3211
21754, 4434, 1748, 1786, 5739
21755, 3578, 3293, 3388, 3512
21756, 719, 3234, 3083, 3207
21757, 3315, 3391, 3546, 3379
21758, 4588, 4698, 1933, 4701
21759, 3489, 3280, 1170, 1145
21760, 1956, 4638, 4668, 4654
21761, 4579, 1922, 4578, 4611
21762, 3022, 27, 2937, 3439
21763, 985, 3251, 1132, 986
21764, 3567, 3525, 3352, 3331
21765, 3624, 3534, 3596, 3369
21766, 1978, 1977, 4761, 2039
21767, 2002, 2017, 2001, 4888
21768, 2147, 2320, 4890, 2146
21769, 2007, 4943, 2008, 2036
21770, 2014, 1983, 1984, 4779
21771, 2342, 2195, 2194, 4945
21772, 2055, 2056, 4781, 2317
21773, 3642, 3583, 3584, 3398
21774, 4682, 4639, 4622, 4651
21775, 2193, 525, 5178, 4947
21776, 5133, 4894, 522, 2148
21777, 2335, 2046, 2045, 4763
21778, 4096, 107, 3803, 987
21779, 5600, 5548, 5559, 4880
21780, 2668, 657, 647, 2978
21781, 1043, 124, 3188, 1044
21782, 1081, 132, 3171, 1082
21783, 5174, 4953, 4950, 2009
21784, 2196, 4949, 5176, 4951
21785, 4782, 1985, 5114, 4789
21786, 4786, 5116, 4783, 2057
21787, 2000, 5128, 4898, 4891
21788, 4893, 5130, 4896, 2145
21789, 4772, 5160, 4768, 1976
21790, 2044, 4770, 5163, 4766
21791, 713, 39, 2707, 3263
21792, 548, 5, 2999, 2457
21793, 901, 674, 3434, 902
21794, 4050, 3828, 4041, 4036
21795, 466, 5495, 5487, 2199
21796, 3555, 3330, 3598, 3578
21797, 3744, 3717, 3950, 4010
21798, 3871, 4105, 161, 1467
21799, 3798, 1318, 4167, 4173
21800, 3378, 3620, 3501, 3503
21801, 5163, 4770, 5156, 4760
21802, 1663, 1601, 5202, 1666
21803, 5246, 1756, 1764, 1816
21804, 713, 41, 3088, 3263
21805, 2708, 2930, 2709, 722
21806, 2971, 645, 659, 2669
21807, 4772, 5160, 5156, 4760
21808, 3542, 3543, 3343, 3310
21809, 3243, 3110, 1002, 3210
21810, 4094, 1433, 4075, 4083
21811, 4063, 4071, 1398, 4061
21812, 3371, 3558, 3292, 3382
21813, 4948, 5181, 390, 2323
21814, 176, 4122, 1298, 3946
21815, 3111, 718, 717, 3248
21816, 3192, 1119, 1120, 1022
21817, 4892, 2302, 389, 5134
21818, 5180, 442, 2340, 4951
21819, 5179, 384, 4953, 2034
21820, 378, 2012, 4789, 5118
21821, 4786, 393, 5120, 2315
21822, 4770, 393, 2337, 5166
21823, 378, 5164, 4772, 2041
21824, 442, 4896, 5135, 2322
21825, 5132, 384, 2019, 4898
21826, 1170, 1144, 3361, 3489
21827, 2241, 4810, 2078, 2077
21828, 2214, 2215, 4974, 2263
21829, 2226, 2272, 2227, 4996
21830, 1210, 3282, 3295, 3579
21831, 921, 922, 1220, 3024
21832, 4942, 4953, 5174, 5171
21833, 4942, 5176, 4951, 5171
21834, 2937, 27, 905, 3439
21835, 3051, 57, 952, 818
21836, 3296, 3282, 3529, 3579
21837, 1454, 1463, 4131, 4143
21838, 4203, 1404, 1402, 4191
21839, 4629, 4681, 4695, 4641
21840, 3745, 3715, 3701, 4014
21841, 4252, 4284, 1555, 4255
21842, 4229, 4226, 4274, 1526
21843, 5419, 460, 4931, 2185
21844, 1738, 1739, 1735, 4468
21845, 5418, 423, 2106, 4854
21846, 4622, 4628, 4639, 5735
21847, 196, 1338, 1337, 5750
21848, 3601, 1147, 3373, 3483
21849, 2991, 2655, 2946, 2980
21850, 3024, 3027, 922, 3437
21851, 4696, 4661, 4662, 5727
21852, 919, 1218, 3475, 1217
21853, 205, 1402, 1417, 4058
21854, 4091, 1463, 1437, 218
21855, 3838, 4047, 3841, 3829
21856, 465, 2203, 4966, 5589
21857, 3628, 3295, 3546, 3572
21858, 2667, 2671, 2972, 2992
21859, 4197, 4196, 4192, 5683
21860, 3958, 3743, 3689, 3707
21861, 3520, 3613, 3418, 3560
21862, 1205, 4118, 3303, 3480
21863, 1259, 1195, 164, 1135
21864, 2932, 717, 2710, 2711
21865, 4806, 4796, 4803, 5724
21866, 1605, 5391, 5200, 1670
21867, 1760, 5244, 1820, 5329
21868, 1493, 4192, 4186, 5683
21869, 5183, 5170, 5177, 4955
21870, 5170, 5183, 5175, 4955
21871, 3564, 3566, 3620, 3397
21872, 4013, 3935, 3937, 3763
21873, 726, 858, 2916, 725
21874, 3371, 3581, 1199, 3580
21875, 3945, 4001, 3759, 3971
21876, 904, 677, 3026, 3432
21877, 3349, 1278, 1207, 3422
21878, 4605, 1856, 4594, 5759
21879, 3229, 3226, 3100, 3230
21880, 5581, 5556, 428, 2113
21881, 1325, 4175, 1372, 4155
21882, 4590, 4586, 1930, 4700
21883, 886, 720, 721, 3241
21884, 3460, 3446, 3040, 3035
21885, 1519, 4211, 4216, 1518
21886, 4237, 1546, 1545, 4242
21887, 4498, 4510, 372, 5757
21888, 5122, 5110, 5115, 4790
21889, 5117, 5110, 5122, 4790
21890, 4116, 1193, 3422, 5748
21891, 4038, 1332, 1331, 3829
21892, 4173, 4167, 203, 1495
21893, 1000, 3208, 3109, 993
21894, 5470, 2104, 422, 4854
21895, 5471, 4931, 459, 2183
21896, 1210, 4124, 3282, 3579
21897, 2930, 2708, 712, 722
21898, 1925, 1923, 4579, 4611
21899, 5555, 428, 5556, 2113
21900, 3146, 3107, 3256, 3125
21901, 5128, 4886, 5124, 4898
21902, 4896, 4886, 5124, 5130
21903, 3325, 3324, 3294, 3608
21904, 3417, 3628, 3295, 3387
21905, 4948, 390, 5181, 2006
21906, 189, 1382, 3799, 5740
21907, 4892, 389, 2003, 5134
21908, 4567, 1767, 338, 5738
21909, 3000, 2996, 2677, 2642
21910, 3243, 3080, 1001, 992
21911, 2635, 2949, 897, 2630
21912, 687, 549, 671, 2457
21913, 2432, 2404, 529, 5723
21914, 2403, 2433, 528, 5722
21915, 4899, 5137, 5125, 5131
21916, 5137, 5129, 4899, 5125
21917, 3343, 3544, 3543, 3542
21918, 604, 558, 2695, 2696
21919, 1301, 1241, 189, 5740
21920, 2728, 2924, 2873, 726
21921, 4693, 1942, 4706, 5701
21922, 3837, 4049, 42, 1015
21923, 1296, 3697, 3986, 3759
21924, 1153, 1162, 3596, 1152
21925, 2950, 2991, 2656, 2679
21926, 5162, 4773, 5169, 5157
21927, 5157, 4773, 5169, 5161
21928, 1279, 1194, 3774, 5748
21929, 1171, 3361, 3591, 3362
21930, 2672, 2667, 2671, 2972
21931, 1568, 1569, 1523, 5714
21932, 1551, 1579, 1580, 5715
21933, 1251, 1252, 172, 5689
21934, 2653, 2963, 2985, 2974
21935, 3394, 3541, 3416, 3606
21936, 1418, 4209, 4217, 4220
21937, 4235, 4246, 1453, 4243
21938, 4153, 1445, 4080, 4082
21939, 1428, 4068, 4070, 4164
21940, 2863, 2902, 2880, 2751
21941, 5585, 2111, 4863, 5553
21942, 3129, 3107, 3238, 3132
21943, 1555, 1554, 1587, 4282
21944, 1527, 1575, 4272, 1526
21945, 4040, 3840, 3839, 4031
21946, 1585, 288, 227, 5275
21947, 208, 270, 1576, 5231
21948, 684, 685, 669, 2942
21949, 3396, 166, 3642, 1468
21950, 2732, 2867, 2731, 2730
21951, 4528, 1826, 4519, 5743
21952, 353, 349, 4454, 4453
21953, 4351, 321, 316, 4352
21954, 5175, 4945, 4944, 4955
21955, 4943, 4955, 5177, 4946
21956, 2987, 2661, 2968, 2970
21957, 3497, 166, 4113, 3642
21958, 4209, 1418, 1419, 4220
21959, 1453, 1452, 4246, 4235
21960, 5522, 4799, 4802, 2068
21961, 3670, 3689, 3948, 3739
21962, 642, 641, 2799, 3056
21963, 3632, 3294, 3512, 3608
21964, 4890, 4887, 4899, 5129
21965, 4773, 5161, 4764, 4761
21966, 685, 669, 670, 2697
21967, 4643, 4626, 4625, 5758
21968, 1979, 1978, 4764, 2038
21969, 2148, 2319, 4887, 2147
21970, 2046, 2334, 2047, 4762
21971, 2194, 2193, 2343, 4944
21972, 2037, 2007, 4946, 2006
21973, 1983, 2015, 1982, 4780
21974, 4778, 2055, 2318, 2054
21975, 5585, 2111, 4862, 4863
21976, 4762, 4773, 4763, 5162
21977, 4899, 4889, 4888, 5131
21978, 1262, 3413, 1180, 3550
21979, 2003, 2016, 2002, 4889
21980, 3355, 3536, 3400, 3588
21981, 3480, 3303, 3521, 3520
21982, 2115, 4866, 5600, 5559
21983, 1922, 4608, 4578, 4611
21984, 4929, 2186, 4930, 5745
21985, 3765, 3953, 3995, 3867
21986, 992, 3243, 3080, 3110
21987, 1161, 3486, 1153, 3276
21988, 4157, 1421, 215, 5683
21989, 224, 1450, 4146, 5684
21990, 654, 651, 650, 2946
21991, 5421, 2402, 5310, 5307
21992, 5369, 5423, 2431, 5372
21993, 3742, 3746, 3936, 3759
21994, 3658, 3719, 3916, 3967
21995, 1767, 4567, 4418, 5738
21996, 1295, 1294, 3966, 4106
21997, 3703, 169, 1373, 3993
21998, 2701, 555, 667, 2700
21999, 4232, 1531, 253, 4240
22000, 5550, 4799, 2072, 4808
22001, 4002, 3950, 3717, 4010
22002, 3305, 3502, 3335, 3336
22003, 2710, 619, 2932, 2711
22004, 1571, 1529, 275, 1505
22005, 4342, 4334, 4490, 1678
22006, 990, 1003, 3101, 3236
22007, 3505, 3506, 3376, 3287
22008, 3312, 1213, 3395, 3507
22009, 4725, 5726, 1960, 5756
22010, 4932, 4734, 4928, 5745
22011, 5111, 4789, 5118, 2042
22012, 2043, 4786, 5120, 5111
22013, 4911, 2159, 447, 5558
22014, 3147, 3105, 3249, 3137
22015, 1382, 189, 3799, 4174
22016, 3688, 3687, 4000, 3744
22017, 5117, 4778, 4790, 4781
22018, 5115, 4780, 4779, 4790
22019, 3440, 92, 3450, 5751
22020, 3589, 1141, 3355, 1174
22021, 3627, 3540, 3347, 3600
22022, 1032, 114, 1017, 3166
22023, 4027, 3827, 4037, 4044
22024, 4707, 4656, 4688, 5746
22025, 166, 3642, 3313, 3396
22026, 3286, 3386, 3605, 3315
22027, 3986, 1296, 3759, 3971
22028, 1381, 4024, 4167, 4173
22029, 730, 2913, 2877, 5700
22030, 3163, 3164, 3192, 1022
22031, 574, 2934, 2935, 718
22032, 3690, 3981, 3692, 3752
22033, 3362, 3591, 1171, 1143
22034, 3569, 3580, 3292, 3487
22035, 4146, 1450, 4126, 5684
22036, 3588, 1141, 3355, 3589
22037, 3311, 3308, 3617, 3553
22038, 1280, 910, 3587, 3021
22039, 4251, 4283, 4252, 4286
22040, 4273, 4276, 4225, 4226
22041, 3280, 3384, 3627, 3489
22042, 3102, 3109, 3208, 3136
22043, 3995, 3953, 3765, 4014
22044, 3008, 83, 3393, 3307
22045, 5179, 4953, 2143, 5171
22046, 4951, 5180, 2144, 5171
22047, 910, 3004, 908, 3006
22048, 4772, 5164, 2042, 5156
22049, 3580, 3292, 3558, 3569
22050, 4770, 5156, 2043, 5166
22051, 1191, 1274, 3582, 1273
22052, 4792, 5110, 2312, 2311
22053, 3997, 4013, 3947, 3671
22054, 624, 577, 2930, 2712
22055, 1140, 1174, 3275, 1175
22056, 3275, 3589, 1140, 3485
22057, 3594, 3524, 3304, 3392
22058, 2988, 2667, 2972, 2992
22059, 416, 5015, 5583, 2098
22060, 5584, 2243, 485, 4831
22061, 3807, 4098, 4102, 1133
22062, 2893, 47, 731, 2913
22063, 3395, 3299, 3330, 3598
22064, 3721, 3960, 3688, 3905
22065, 3840, 3839, 4031, 3831
22066, 3905, 3960, 3688, 4015
22067, 3462, 29, 26, 898
22068, 4100, 3805, 3808, 1199
22069, 5518, 5489, 5520, 5710
22070, 4840, 4838, 2091, 5651
22071, 5033, 5031, 2248, 5665
22072, 2678, 2989, 2663, 2982
22073, 2746, 2777, 2863, 2740
22074, 1673, 308, 4325, 5747
22075, 2667, 2948, 674, 2644
22076, 3373, 3279, 3601, 3429
22077, 3579, 3295, 3628, 3572
22078, 3597, 3342, 3364, 3339
22079, 3567, 3352, 3341, 3331
22080, 5124, 2144, 4896, 5135
22081, 5132, 5124, 2143, 4898
22082, 1268, 4123, 178, 1267
22083, 4332, 4333, 1690, 5535
22084, 5609, 2241, 4810, 5603
22085, 4996, 2272, 5631, 5637
22086, 5617, 4974, 2263, 5623
22087, 4724, 374, 1961, 5755
22088, 3646, 3275, 3590, 3385
22089, 3371, 3317, 3558, 3382
22090, 3554, 3397, 3564, 3300
22091, 668, 2657, 2942, 2642
22092, 2668, 2945, 2671, 2966
22093, 3765, 3995, 3701, 3700
22094, 926, 3441, 3445, 3035
22095, 4249, 220, 4285, 1438
22096, 4695, 4670, 4681, 5737
22097, 5456, 5306, 5278, 2387
22098, 5368, 5340, 2416, 5457
22099, 4902, 2155, 4912, 5505
22100, 3972, 3755, 3758, 3733
22101, 2978, 2668, 657, 2632
22102, 3558, 3568, 3569, 3382
22103, 3477, 3362, 3278, 1172
22104, 147, 1111, 96, 134
22105, 3070, 30, 597, 2704
22106, 3871, 4012, 3783, 1184
22107, 4925, 4734, 5399, 5745
22108, 420, 2103, 5285, 5308
22109, 3241, 3207, 720, 3075
22110, 3534, 3339, 3369, 3302
22111, 4622, 4640, 1908, 5735
22112, 3030, 3042, 3449, 935
22113, 2061, 4807, 396, 5568
22114, 4701, 1933, 4588, 4601
22115, 3736, 3686, 3758, 3979
22116, 4350, 1688, 1656, 5744
22117, 1942, 4609, 4611, 5701
22118, 1380, 4023, 4024, 4169
22119, 4213, 4217, 4209, 4220
22120, 4235, 4239, 4246, 4243
22121, 3314, 3343, 3631, 3381
22122, 3774, 3739, 183, 1193
22123, 2323, 5170, 2324, 4956
22124, 4782, 5113, 5123, 5114
22125, 5112, 4783, 5123, 5116
22126, 3862, 4179, 1365, 3863
22127, 4124, 1211, 3282, 3579
22128, 922, 3370, 3585, 3570
22129, 720, 886, 885, 3207
22130, 3257, 3139, 3087, 3213
22131, 4179, 1344, 3849, 3847
22132, 1866, 1677, 1676, 1717
22133, 1797, 1796, 1838, 1911
22134, 3759, 1296, 3945, 3971
22135, 3242, 3131, 983, 3076
22136, 5111, 2043, 4777, 2042
22137, 3129, 3256, 3239, 3238
22138, 2437, 535, 5258, 5696
22139, 5125, 2303, 4901, 2302
22140, 884, 719, 2934, 885
22141, 684, 683, 668, 2700
22142, 2976, 670, 2631, 2679
22143, 2435, 5214, 530, 5697
22144, 1151, 1150, 1164, 3478
22145, 820, 61, 56, 3171
22146, 52, 65, 3188, 849
22147, 3839, 4046, 3842, 4034
22148, 5569, 430, 4870, 2120
22149, 1463, 4131, 228, 1454
22150, 1402, 1404, 207, 4191
22151, 3531, 3379, 3546, 3545
22152, 3556, 3317, 3558, 3371
22153, 456, 2173, 5485, 5497
22154, 196, 3858, 1338, 5750
22155, 3164, 1119, 3192, 1022
22156, 3515, 3519, 3518, 3368
22157, 3546, 3379, 3295, 3387
22158, 4105, 188, 3783, 4108
22159, 3463, 3459, 3030, 3037
22160, 288, 280, 1585, 4295
22161, 4258, 270, 278, 1576
22162, 3721, 3688, 3960, 3744
22163, 5543, 5568, 5557, 5709
22164, 721, 2930, 2931, 887
22165, 1181, 4119, 176, 4122
22166, 3281, 1196, 3386, 3626
22167, 1782, 4424, 4416, 5538
22168, 5158, 5168, 5160, 4768
22169, 5174, 5173, 4950, 5182
22170, 5176, 4949, 5172, 5182
22171, 5163, 5159, 4766, 5168
22172, 1938, 354, 369, 4608
22173, 3280, 3489, 3600, 1145
22174, 610, 564, 563, 2529
22175, 2705, 2817, 38, 3071
22176, 4923, 2166, 453, 5570
22177, 4108, 3986, 3871, 3971
22178, 3033, 665, 664, 897
22179, 3739, 3774, 3866, 1193
22180, 3566, 3270, 1188, 1187
22181, 3835, 4045, 4030, 4046
22182, 984, 1130, 1131, 3213
22183, 611, 565, 564, 2529
22184, 4501, 4707, 1878, 5746
22185, 4821, 4817, 4822, 5611
22186, 4986, 4981, 5625, 4985
22187, 5007, 5639, 5003, 5008
22188, 2738, 2862, 2736, 2866
22189, 5157, 2332, 4774, 2333
22190, 1131, 985, 4100, 3805
22191, 3324, 3431, 3388, 3512
22192, 221, 4277, 1590, 1439
22193, 217, 4267, 1431, 1572
22194, 2867, 2731, 2727, 2779
22195, 5127, 5136, 5128, 4891
22196, 5126, 5130, 5136, 4893
22197, 2043, 2042, 5156, 4760
22198, 3041, 3444, 664, 896
22199, 2696, 2695, 604, 2697
22200, 3459, 3042, 3458, 3443
22201, 2202, 5598, 4964, 5724
22202, 3541, 3505, 3376, 3416
22203, 3771, 3729, 3947, 3772
22204, 127, 3172, 1047, 1048
22205, 1174, 3589, 1141, 1140
22206, 999, 3211, 995, 3077
22207, 2768, 611, 2795, 2767
22208, 4870, 5504, 5523, 2121
22209, 4942, 2144, 2143, 5171
22210, 4651, 4639, 4622, 1954
22211, 2726, 2724, 2781, 2864
22212, 2779, 2727, 2867, 2854
22213, 842, 1054, 3181, 773
22214, 1063, 833, 3182, 782
22215, 4973, 5593, 5622, 2211
22216, 2074, 5608, 5594, 4809
22217, 2223, 5636, 5595, 4995
22218, 3385, 3338, 3646, 3428
22219, 2982, 2678, 2989, 2961
22220, 3311, 3315, 3546, 3387
22221, 715, 2708, 2709, 722
22222, 5522, 5491, 5490, 5721
22223, 549, 1, 2696, 2458
22224, 2440, 5638, 5643, 2232
22225, 2452, 2220, 5624, 5629
22226, 2446, 5615, 2083, 5610
22227, 2877, 2844, 46, 2926
22228, 4155, 185, 3818, 1325
22229, 1674, 313, 1715, 4364
22230, 3849, 199, 4177, 3856
22231, 2978, 657, 648, 2632
22232, 4013, 3671, 3763, 3653
22233, 3568, 3359, 3485, 3428
22234, 4937, 5542, 2190, 5587
22235, 5116, 4783, 4777, 4786
22236, 5114, 4777, 4782, 4789
22237, 1212, 3410, 3277, 3509
22238, 4927, 4930, 4932, 5745
22239, 3130, 3113, 3214, 3260
22240, 5097, 2024, 4746, 5098
22241, 5144, 5143, 2031, 4745
22242, 3596, 1153, 3486, 3276
22243, 3488, 3586, 3585, 3291
22244, 4042, 3840, 977, 3836
22245, 2669, 659, 2971, 2647
22246, 2648, 2985, 2677, 2653
22247, 213, 4223, 5185, 1416
22248, 3687, 3874, 3751, 3649
22249, 3343, 3314, 3542, 3310
22250, 5124, 4886, 2144, 2143
22251, 4770, 5163, 4766, 4760
22252, 1908, 4628, 4622, 5735
22253, 4772, 5160, 4760, 4768
22254, 3524, 3594, 3623, 3392
22255, 3872, 1190, 163, 4110
22256, 4607, 4495, 4494, 1704
22257, 3745, 3729, 3961, 3912
22258, 3566, 3270, 3397, 1188
22259, 4911, 2162, 4908, 5574
22260, 5174, 4950, 4953, 4942
22261, 4949, 5176, 4951, 4942
22262, 5732, 5746, 4688, 5755
22263, 4481, 4335, 1656, 5742
22264, 306, 4481, 1656, 5742
22265, 3371, 3292, 3558, 3580
22266, 3354, 3394, 3490, 3279
22267, 4734, 5399, 5341, 1964
22268, 5279, 4733, 1986, 5337
22269, 4712, 4690, 4667, 5756
22270, 3348, 3538, 3541, 3618
22271, 4727, 4734, 5341, 1964
22272, 1986, 4728, 4733, 5279
22273, 3413, 1180, 1181, 1262
22274, 2940, 897, 2949, 2630
22275, 3080, 993, 1001, 992
22276, 995, 998, 3211, 999
22277, 1256, 1198, 3580, 3487
22278, 4910, 2152, 445, 5501
22279, 5591, 416, 2444, 5652
22280, 5590, 485, 2450, 5666
22281, 2652, 2687, 2966, 2993
22282, 2722, 2864, 2886, 2762
22283, 1581, 4283, 4280, 4253
22284, 4273, 4227, 1567, 4270
22285, 350, 371, 4508, 4497
22286, 3742, 3936, 3986, 3759
22287, 5435, 534, 533, 5696
22288, 2262, 2214, 2213, 4979
22289, 4953, 2143, 384, 5179
22290, 2144, 442, 5180, 4951
22291, 4896, 2144, 442, 5135
22292, 5132, 2143, 384, 4898
22293, 5118, 4789, 378, 2042
22294, 5164, 2042, 378, 4772
22295, 3569, 3338, 3533, 3637
22296, 4797, 2073, 5560, 5724
22297, 3293, 3324, 3388, 3512
22298, 4786, 5120, 393, 2043
22299, 2043, 393, 4770, 5166
22300, 2659, 2664, 2660, 2995
22301, 3841, 1012, 4041, 3838
22302, 3281, 3386, 3391, 3626
22303, 189, 1241, 4026, 5740
22304, 978, 3255, 1125, 1126
22305, 3125, 998, 3245, 3211
22306, 2930, 2931, 624, 2712
22307, 3345, 3639, 3540, 3610
22308, 5130, 4896, 4886, 4893
22309, 4898, 5128, 4886, 4891
22310, 4286, 4252, 4251, 4254
22311, 4276, 4228, 4225, 4226
22312, 2760, 2924, 726, 727
22313, 1143, 1172, 3477, 1142
22314, 531, 5434, 532, 5697
22315, 3318, 3306, 3530, 3296
22316, 4652, 4674, 4686, 5758
22317, 4347, 4329, 1703, 4368
22318, 3505, 3506, 3287, 3503
22319, 1570, 4224, 4229, 1506
22320, 1570, 1530, 4255, 4250
22321, 2652, 2965, 2680, 2964
22322, 4945, 5175, 5183, 4955
22323, 5177, 5183, 4955, 4943
22324, 3408, 3292, 3569, 3382
22325, 643, 2939, 905, 2691
22326, 4882, 5523, 437, 2129
22327, 5509, 4805, 2064, 5499
22328, 3208, 3080, 1001, 3243
22329, 596, 706, 597, 3070
22330, 1194, 3422, 1193, 5748
22331, 3867, 3720, 3929, 3752
22332, 3490, 3601, 1148, 3279
22333, 4769, 394, 2050, 5417
22334, 395, 5416, 4787, 2052
22335, 3410, 3312, 3431, 3508
22336, 1578, 267, 5401, 1566
22337, 279, 1582, 1584, 5400
22338, 3120, 3080, 3258, 3243
22339, 3567, 3341, 3595, 3475
22340, 2685, 2974, 3000, 2631
22341, 5137, 4899, 4888, 5131
22342, 5129, 4899, 4890, 5137
22343, 1259, 1195, 1135, 3421
22344, 4773, 5169, 5161, 4761
22345, 5162, 4773, 4763, 5169
22346, 4331, 4348, 1691, 4373
22347, 2689, 2950, 2656, 2679
22348, 3330, 3299, 1186, 3555
22349, 4343, 4480, 318, 1847
22350, 3589, 3275, 3590, 3485
22351, 717, 883, 3205, 3248
22352, 2999, 687, 671, 2675
22353, 3505, 3335, 3606, 3502
22354, 4389, 1748, 4395, 5739
22355, 2690, 2638, 2946, 2676
22356, 3924, 3868, 3778, 3756
22357, 2146, 2320, 5126, 2321
22358, 2018, 2001, 2017, 5127
22359, 5158, 1977, 2040, 2039
22360, 2045, 2336, 2335, 5159
22361, 5173, 2035, 2008, 2036
22362, 2341, 2195, 2342, 5172
22363, 2014, 1984, 2013, 5113
22364, 5112, 2056, 2316, 2317
22365, 3613, 1206, 1277, 3520
22366, 3524, 3304, 3392, 3375
22367, 3347, 3348, 3373, 3618
22368, 2833, 689, 31, 2816
22369, 670, 2695, 2696, 2697
22370, 5122, 5117, 4790, 4781
22371, 5122, 5115, 4779, 4790
22372, 1942, 4611, 1941, 5701
22373, 1811, 355, 351, 1824
22374, 294, 290, 1609, 1625
22375, 4577, 1825, 4578, 4608
22376, 3490, 3615, 3394, 3334
22377, 4352, 1563, 4263, 4259
22378, 4290, 4454, 1596, 4294
22379, 4608, 4577, 369, 1922
22380, 1220, 3024, 3437, 3434
22381, 4413, 1768, 4446, 4431
22382, 4655, 4685, 4684, 5759
22383, 581, 642, 582, 2543
22384, 1437, 4281, 4280, 5402
22385, 999, 994, 3262, 3077
22386, 3118, 3251, 3117, 986
22387, 1906, 4640, 4629, 5737
22388, 720, 721, 2931, 886
22389, 1118, 3202, 1028, 3773
22390, 3606, 3607, 3502, 3305
22391, 1091, 66, 1111, 856
22392, 416, 5646, 2444, 5652
22393, 5666, 5660, 485, 2450
22394, 4186, 4196, 4198, 5683
22395, 2190, 4938, 4937, 5587
22396, 3416, 3335, 3505, 3407
22397, 4455, 1721, 1720, 1722
22398, 1626, 1643, 1642, 4353
22399, 3581, 3366, 3556, 3371
22400, 3628, 3546, 3295, 3387
22401, 3012, 28, 899, 2941
22402, 3075, 3207, 3083, 3265
22403, 4177, 200, 3863, 3856
22404, 3110, 991, 3210, 3101
22405, 3234, 3112, 719, 3083
22406, 3743, 1237, 3760, 3707
22407, 4210, 4208, 4218, 4211
22408, 4237, 4236, 4234, 4244
22409, 3384, 3280, 3361, 3489
22410, 3269, 3414, 3576, 3619
22411, 288, 262, 259, 1737
22412, 248, 249, 270, 1652
22413, 3597, 1163, 1152, 3364
22414, 3455, 3041, 3444, 3453
22415, 1737, 1738, 1736, 4453
22416, 4351, 1652, 1653, 1640
22417, 3529, 3296, 3572, 3531
22418, 5224, 248, 270, 1652
22419, 259, 288, 1737, 5268
22420, 4636, 350, 371, 1911
22421, 3688, 3670, 4015, 3949
22422, 3494, 1278, 3422, 5748
22423, 169, 91, 5689, 5740
22424, 3487, 1256, 1198, 1255
22425, 1238, 3743, 3768, 3958
22426, 1990, 4752, 4753, 5281
22427, 4751, 4754, 5343, 1968
22428, 3951, 3738, 3721, 3682
22429, 3597, 3364, 3534, 3339
22430, 3688, 3721, 3905, 3707
22431, 4184, 1344, 198, 4176
22432, 3609, 3328, 3404, 3329
22433, 1133, 3807, 4098, 986
22434, 4967, 468, 5496, 2204
22435, 1200, 1257, 3808, 1199
22436, 4789, 5111, 4777, 2042
22437, 2043, 4777, 4786, 5111
22438, 1177, 3556, 3317, 1138
22439, 563, 562, 609, 2593
22440, 722, 41, 2707, 3263
22441, 2932, 76, 42, 717
22442, 3905, 3721, 3954, 3707
22443, 3535, 3534, 3369, 3302
22444, 4655, 1928, 4584, 4689
22445, 3209, 3119, 3260, 3232
22446, 1911, 1838, 4716, 1960
22447, 2311, 4792, 5110, 5121
22448, 5110, 2312, 5119, 4792
22449, 4905, 4904, 2156, 5510
22450, 3238, 3239, 3129, 3228
22451, 446, 398, 5492, 4832
22452, 3478, 1164, 1151, 3423
22453, 3912, 3729, 1370, 3728
22454, 3271, 3537, 3273, 3599
22455, 4507, 371, 1958, 5726
22456, 424, 2108, 4970, 4858
22457, 2187, 461, 4935, 4938
22458, 4214, 246, 1512, 4206
22459, 1218, 3549, 1219, 920
22460, 2668, 647, 2945, 2978
22461, 1123, 3074, 3205, 3214
22462, 2213, 5630, 2262, 4979
22463, 2658, 666, 2983, 2630
22464, 3437, 3027, 1221, 3435
22465, 4283, 4252, 4256, 4251
22466, 4226, 4225, 4273, 4230
22467, 2910, 3199, 729, 2920
22468, 92, 3440, 931, 5725
22469, 3873, 178, 3653, 1183
22470, 2207, 4963, 4964, 5509
22471, 3416, 3505, 3376, 3407
22472, 3312, 3431, 3634, 3388
22473, 4770, 2043, 5156, 4760
22474, 5156, 2042, 4772, 4760
22475, 3554, 3564, 3563, 3300
22476, 1165, 1149, 1166, 3354
22477, 555, 601, 602, 2700
22478, 3039, 936, 26, 3462
22479, 3013, 678, 2997, 2981
22480, 3416, 3505, 3335, 3606
22481, 1529, 4257, 4250, 1571
22482, 4231, 1571, 1505, 4224
22483, 268, 4341, 4261, 5712
22484, 4425, 282, 4292, 5713
22485, 1146, 1168, 1147, 3483
22486, 1438, 1437, 4281, 4280
22487, 1417, 4271, 4270, 1416
22488, 4183, 3864, 1358, 5750
22489, 4942, 2143, 4953, 5171
22490, 4942, 4951, 2144, 5171
22491, 1313, 4172, 3799, 4174
22492, 4635, 1946, 370, 4706
22493, 1910, 4717, 373, 1837
22494, 1865, 1716, 374, 4719
22495, 4218, 4221, 4214, 4210
22496, 4247, 4240, 4236, 4244
22497, 3961, 3729, 3947, 3912
22498, 2529, 563, 610, 2593
22499, 3231, 3110, 3210, 3116
22500, 3253, 985, 3117, 3251
22501, 3719, 4002, 3911, 3967
22502, 669, 670, 2631, 2976
22503, 4734, 4928, 4925, 2011
22504, 3440, 92, 5751, 5752
22505, 3515, 3277, 3390, 3511
22506, 667, 683, 668, 2969
22507, 3752, 3929, 3981, 3959
22508, 910, 3014, 3587, 3021
22509, 1937, 4707, 363, 4598
22510, 2817, 708, 38, 2834
22511, 936, 947, 3462, 3443
22512, 3593, 3594, 3354, 3392
22513, 1184, 3871, 161, 1467
22514, 3954, 3760, 3905, 3707
22515, 1717, 1676, 1866, 4719
22516, 4717, 1838, 1796, 1911
22517, 3949, 4000, 3687, 3950
22518, 1206, 3418, 3303, 3520
22519, 1906, 4629, 4624, 5737
22520, 242, 275, 253, 1529
22521, 3296, 3530, 3318, 3531
22522, 46, 152, 2920, 1119
22523, 3995, 3701, 3927, 4014
22524, 3524, 3623, 3611, 3375
22525, 3345, 3384, 3327, 3610
22526, 678, 2634, 2981, 2633
22527, 45, 2927, 2843, 2876
22528, 3645, 3373, 3601, 3429
22529, 3563, 3492, 3300, 3398
22530, 1352, 3854, 3859, 3860
22531, 4217, 4221, 4209, 5410
22532, 4247, 4235, 5411, 4243
22533, 1268, 1184, 3406, 3565
22534, 3418, 3426, 3303, 3520
22535, 5639, 5007, 5632, 5640
22536, 5612, 4821, 5611, 5604
22537, 5626, 4985, 5625, 5618
22538, 3041, 3044, 3444, 3453
22539, 3261, 3112, 3083, 3089
22540, 719, 884, 718, 3234
22541, 2656, 2643, 2980, 2689
22542, 374, 1865, 4592, 5718
22543, 3396, 3563, 3564, 3300
22544, 3319, 3530, 3533, 3532
22545, 4107, 3479, 1188, 1187
22546, 165, 3386, 3476, 3573
22547, 3700, 3720, 3867, 3752
22548, 3342, 3611, 3478, 3375
22549, 2143, 5124, 4886, 4898
22550, 2144, 4886, 5124, 4896
22551, 622, 575, 2933, 2934
22552, 556, 602, 2699, 2700
22553, 3042, 3449, 3459, 3030
22554, 5170, 2323, 5181, 4956
22555, 5170, 5178, 2324, 4956
22556, 3993, 169, 3784, 3703
22557, 5116, 4777, 5123, 5111
22558, 5111, 4777, 5123, 5114
22559, 1411, 4198, 4196, 1415
22560, 3396, 3642, 3563, 3398
22561, 3365, 3559, 3370, 3570
22562, 1123, 1124, 976, 3259
22563, 1373, 3168, 1382, 5740
22564, 2951, 3013, 2947, 2952
22565, 4901, 5125, 2302, 5134
22566, 151, 1289, 1120, 1421
22567, 1112, 150, 1450, 1292
22568, 5133, 2303, 4901, 5125
22569, 3424, 1191, 1274, 4114
22570, 1268, 3653, 178, 1183
22571, 5654, 2087, 411, 5653
22572, 5667, 5668, 488, 2244
22573, 4882, 436, 5569, 2129
22574, 1382, 4025, 4174, 5740
22575, 3831, 975, 1123, 976
22576, 2732, 2874, 2867, 2730
22577, 3400, 3320, 3363, 3527
22578, 3357, 3575, 3358, 3574
22579, 2940, 666, 26, 2630
22580, 3438, 79, 924, 1223
22581, 1138, 1177, 3556, 1137
22582, 2965, 3002, 2992, 2688
22583, 2663, 2634, 2678, 2982
22584, 3459, 3033, 3444, 3458
22585, 653, 651, 2655, 2980
22586, 1191, 181, 1273, 3775
22587, 3276, 3405, 3486, 3624
22588, 3252, 3248, 3111, 3214
22589, 638, 639, 3067, 2809
22590, 3836, 4043, 4042, 4035
22591, 2968, 2995, 2659, 2987
22592, 2946, 2638, 654, 2655
22593, 2987, 2949, 2659, 2658
22594, 572, 619, 620, 2602
22595, 1724, 1719, 4456, 5739
22596, 2667, 2988, 2948, 2992
22597, 1183, 3406, 3340, 3565
22598, 2751, 2780, 2880, 2744
22599, 443, 2152, 4910, 5570
22600, 2034, 4953, 5174, 2009
22601, 5114, 1985, 2012, 4789
22602, 2340, 2196, 5176, 4951
22603, 5116, 4786, 2315, 2057
22604, 5128, 2019, 2000, 4898
22605, 4772, 5160, 1976, 2041
22606, 2145, 5130, 4896, 2322
22607, 4770, 2337, 2044, 5163
22608, 2698, 666, 682, 2702
22609, 3578, 3555, 3401, 3562
22610, 1941, 4706, 5701, 5705
22611, 4432, 1780, 4445, 4415
22612, 3671, 3947, 3997, 3772
22613, 3007, 3616, 3633, 3285
22614, 3585, 3586, 3427, 3291
22615, 2722, 2864, 2893, 2886
22616, 3406, 1183, 1268, 3565
22617, 5156, 5163, 4760, 5168
22618, 4760, 5160, 5156, 5168
22619, 4440, 1921, 337, 4442
22620, 2942, 685, 669, 2976
22621, 4471, 355, 1811, 5733
22622, 3125, 3146, 995, 3211
22623, 3917, 3682, 3951, 3918
22624, 3494, 3422, 1279, 5748
22625, 4705, 4688, 4690, 5732
22626, 3950, 4000, 3687, 3744
22627, 3739, 3689, 3948, 3958
22628, 5171, 4942, 5176, 5182
22629, 5174, 4942, 5171, 5182
22630, 5517, 5491, 5522, 5721
22631, 3762, 3989, 3704, 3975
22632, 3600, 1169, 1145, 1146
22633, 2273, 5057, 2272, 5631
22634, 2264, 5048, 2263, 5617
22635, 2241, 5603, 2242, 5024
22636, 5645, 5066, 2282, 2281
22637, 5659, 5078, 2293, 2292
22638, 76, 2932, 883, 717
22639, 4668, 4712, 4667, 5756
22640, 2993, 2652, 2687, 2686
22641, 4774, 5167, 2332, 5157
22642, 2333, 4774, 5157, 5165
22643, 3323, 3583, 3582, 4114
22644, 656, 648, 657, 2632
22645, 34, 581, 580, 709
22646, 2699, 668, 556, 2700
22647, 575, 2933, 2934, 719
22648, 4580, 4595, 4592, 5757
22649, 3605, 3386, 3476, 3626
22650, 3116, 3237, 3257, 3087
22651, 1316, 3796, 3795, 4171
22652, 3169, 3166, 3167, 5725
22653, 3428, 3557, 3317, 3382
22654, 368, 1826, 5705, 5743
22655, 3101, 1003, 3210, 3236
22656, 3605, 3553, 3315, 3546
22657, 3348, 3645, 3373, 3618
22658, 2632, 648, 2978, 2943
22659, 4965, 5502, 4967, 2205
22660, 3277, 3410, 3380, 3509
22661, 3759, 3945, 1296, 3654
22662, 3287, 3537, 3506, 3273
22663, 1641, 1628, 4354, 5744
22664, 996, 997, 3088, 3245
22665, 330, 1786, 4388, 4394
22666, 4305, 301, 4311, 1688
22667, 2654, 2690, 2973, 2676
22668, 315, 269, 4344, 4367
22669, 4469, 350, 286, 4428
22670, 4414, 1781, 4471, 4424
22671, 1184, 1183, 1268, 3406
22672, 2875, 728, 729, 2918
22673, 1218, 3475, 3549, 919
22674, 3687, 3751, 3874, 3950
22675, 4886, 5136, 5124, 5130
22676, 5124, 5136, 4886, 5128
22677, 2863, 2861, 2746, 2740
22678, 4926, 4927, 4928, 5745
22679, 4690, 5754, 4667, 5756
22680, 4100, 4098, 1257, 3808
22681, 1144, 1171, 3591, 1143
22682, 2656, 2676, 2662, 2991
22683, 3615, 3490, 3594, 3334
22684, 1012, 3841, 4041, 4029
22685, 3590, 3356, 3275, 3589
22686, 4618, 1939, 4546, 4521
22687, 4923, 454, 2166, 5501
22688, 3447, 3453, 3459, 3037
22689, 3541, 3505, 3538, 3376
22690, 3300, 3492, 3554, 1189
22691, 4604, 4584, 1928, 4689
22692, 3716, 3746, 3935, 3742
22693, 3593, 3322, 3623, 3392
22694, 3529, 3530, 3306, 3296
22695, 5493, 399, 440, 5016
22696, 5433, 526, 5154, 2332
22697, 5108, 2311, 523, 5432
22698, 3302, 3535, 3523, 3310
22699, 1036, 3187, 51, 855
22700, 55, 826, 1074, 3170
22701, 621, 620, 573, 2935
22702, 1581, 4280, 5402, 4253
22703, 5403, 1567, 4227, 4270
22704, 280, 1585, 1583, 5400
22705, 278, 5401, 1560, 1576
22706, 897, 3033, 665, 3458
22707, 293, 296, 376, 1643
22708, 324, 356, 380, 1721
22709, 670, 2695, 2692, 2696
22710, 1219, 3488, 1220, 921
22711, 2536, 635, 588, 2589
22712, 2976, 669, 2942, 2642
22713, 3485, 1139, 1140, 1175
22714, 2042, 5118, 5111, 2314
22715, 2313, 2043, 5120, 5111
22716, 2113, 5555, 428, 4869
22717, 3334, 3594, 3615, 3606
22718, 2875, 2786, 2717, 2915
22719, 3840, 4040, 4042, 4031
22720, 3717, 3744, 3669, 4010
22721, 2661, 2987, 2657, 2970
22722, 3499, 3602, 3484, 4117
22723, 3498, 3497, 3638, 3415
22724, 2933, 720, 886, 885
22725, 669, 685, 684, 2699
22726, 3349, 3494, 1278, 3422
22727, 1119, 141, 1385, 5700
22728, 1893, 367, 1716, 4719
22729, 4608, 1825, 4578, 5743
22730, 4015, 3670, 3948, 3949
22731, 678, 28, 3012, 2941
22732, 5503, 4923, 2179, 4922
22733, 3938, 1191, 1273, 3999
22734, 1958, 371, 4725, 5726
22735, 91, 3043, 3457, 3029
22736, 3697, 3742, 3986, 3759
22737, 4695, 1952, 4629, 4641
22738, 3611, 3342, 3301, 3375
22739, 3145, 3260, 3130, 3259
22740, 1169, 3600, 3411, 1146
22741, 3533, 3568, 3338, 3569
22742, 3000, 2677, 2985, 2685
22743, 3040, 3031, 3460, 3035
22744, 2643, 652, 653, 2980
22745, 1277, 1206, 4118, 3520
22746, 3394, 3416, 3541, 3429
22747, 2963, 2648, 2646, 2653
22748, 5171, 5180, 2144, 2338
22749, 2339, 5179, 2143, 5171
22750, 5164, 2339, 2042, 5156
22751, 2043, 5156, 2338, 5166
22752, 107, 4096, 1134, 987
22753, 4016, 3951, 3738, 3721
22754, 5408, 4283, 4251, 1580
22755, 1568, 4225, 5409, 4273
22756, 590, 2468, 2492, 2624
22757, 2171, 2172, 5577, 4922
22758, 4870, 4865, 5504, 2121
22759, 3135, 3077, 3262, 3109
22760, 5180, 2340, 5176, 4951
22761, 5174, 5179, 4953, 2034
22762, 4786, 5120, 5116, 2315
22763, 2012, 5114, 4789, 5118
22764, 2337, 4770, 5166, 5163
22765, 5130, 5135, 4896, 2322
22766, 5160, 4772, 5164, 2041
22767, 2019, 5128, 5132, 4898
22768, 179, 1297, 3783, 1467
22769, 2685, 2662, 2974, 2631
22770, 4251, 1551, 5408, 1580
22771, 1568, 4225, 1523, 5409
22772, 3539, 3538, 3346, 3540
22773, 2531, 609, 562, 2593
22774, 3990, 3694, 3910, 1021
22775, 611, 565, 2529, 2585
22776, 4993, 2244, 2243, 5492
22777, 2098, 5493, 4829, 2087
22778, 2661, 2968, 2659, 2987
22779, 5281, 1991, 4752, 5318
22780, 5343, 5380, 4751, 1969
22781, 3406, 1184, 1269, 3565
22782, 3729, 3962, 3705, 3764
22783, 553, 599, 680, 2527
22784, 4733, 4755, 1998, 4851
22785, 720, 886, 3207, 3241
22786, 3611, 3629, 3522, 3301
22787, 104, 3817, 3820, 3127
22788, 1139, 1176, 3557, 1138
22789, 1205, 4118, 3602, 4117
22790, 4599, 4593, 4656, 1936
22791, 3244, 3208, 3258, 3136
22792, 3498, 3497, 3415, 3313
22793, 2143, 2314, 5124, 5132
22794, 2144, 5124, 2313, 5135
22795, 4779, 5113, 5115, 5122
22796, 5122, 5117, 4781, 5112
22797, 1656, 4306, 4312, 5744
22798, 2740, 2861, 2746, 2738
22799, 3453, 3032, 3044, 3036
22800, 4178, 202, 1365, 1360
22801, 4961, 464, 4935, 2188
22802, 2109, 427, 4862, 4858
22803, 2465, 2520, 2592, 2593
22804, 3339, 3364, 3534, 3369
22805, 1200, 3366, 3581, 3371
22806, 602, 601, 555, 2603
22807, 2692, 2695, 558, 2696
22808, 3389, 1469, 167, 3350
22809, 2973, 2690, 2975, 2946
22810, 3946, 1182, 4122, 3873
22811, 669, 557, 2697, 2699
22812, 2945, 2668, 2978, 2966
22813, 5373, 5347, 5370, 5745
22814, 1257, 1199, 3580, 1256
22815, 2930, 577, 711, 2709
22816, 3451, 3043, 3034, 3465
22817, 1531, 246, 253, 4240
22818, 3320, 3400, 3536, 3527
22819, 3039, 665, 3033, 3458
22820, 3257, 3230, 3128, 3267
22821, 1128, 3206, 3824, 3264
22822, 584, 640, 2539, 2628
22823, 651, 2946, 2655, 2980
22824, 4404, 4409, 1836, 4467
22825, 897, 665, 2635, 2630
22826, 4281, 4280, 5402, 1582
22827, 2917, 2873, 2924, 726
22828, 2871, 2761, 2925, 2921
22829, 5177, 5183, 4943, 5173
22830, 5183, 5175, 4945, 5172
22831, 3404, 3518, 3609, 3577
22832, 4176, 1344, 198, 1345
22833, 1221, 923, 922, 3570
22834, 3104, 3128, 3100, 3230
22835, 3447, 3452, 3453, 3036
22836, 5588, 2209, 5541, 4969
22837, 3709, 1372, 1371, 3776
22838, 2676, 2946, 2973, 2991
22839, 4928, 4734, 4756, 2011
22840, 4335, 4348, 4338, 5742
22841, 2721, 2773, 2765, 2836
22842, 938, 737, 93, 5751
22843, 3533, 3568, 3646, 3338
22844, 4905, 4909, 2160, 5565
22845, 1150, 1164, 3478, 3322
22846, 3486, 3357, 1161, 1154
22847, 645, 660, 659, 2669
22848, 4384, 1740, 4405, 4406
22849, 4509, 4500, 4499, 1959
22850, 3356, 3355, 3275, 3589
22851, 5406, 4219, 1418, 1502
22852, 1533, 5407, 4245, 1453
22853, 3107, 3245, 3256, 3125
22854, 4418, 4431, 4420, 5738
22855, 5129, 4890, 5126, 5137
22856, 5137, 4888, 5127, 5131
22857, 4510, 372, 4501, 4498
22858, 2697, 557, 603, 2699
22859, 3962, 3729, 3947, 3771
22860, 3493, 4109, 3299, 3555
22861, 4763, 5159, 5162, 5169
22862, 5169, 5161, 4761, 5158
22863, 3312, 3507, 3634, 3508
22864, 3651, 3784, 3731, 1233
22865, 1186, 3299, 4109, 3555
22866, 3314, 3547, 3309, 3374
22867, 1345, 4176, 1344, 3849
22868, 3873, 3671, 4013, 3653
22869, 619, 2936, 2932, 2711
22870, 2722, 2724, 2864, 2762
22871, 3441, 3445, 1227, 926
22872, 667, 683, 2969, 2983
22873, 3458, 665, 897, 898
22874, 2940, 2983, 666, 2630
22875, 3465, 3043, 3034, 3029
22876, 1160, 3357, 3574, 1154
22877, 2592, 2566, 2583, 2518
22878, 1152, 1163, 3597, 1151
22879, 4249, 4280, 4283, 4253
22880, 4270, 4273, 4227, 4223
22881, 1515, 1514, 4217, 5410
22882, 1542, 5411, 1541, 4243
22883, 3278, 1142, 1173, 3588
22884, 3687, 3874, 3949, 3950
22885, 2999, 652, 548, 2675
22886, 3604, 3547, 3521, 3374
22887, 5121, 5110, 5117, 4778
22888, 5115, 5119, 4780, 5110
22889, 2693, 2694, 666, 2698
22890, 5410, 4221, 4209, 1503
22891, 4235, 5411, 1532, 4247
22892, 2949, 2659, 2995, 2987
22893, 3615, 3541, 3645, 3429
22894, 667, 666, 2983, 2658
22895, 934, 3030, 3040, 3454
22896, 3443, 3449, 3042, 935
22897, 5486, 4801, 2062, 5516
22898, 2780, 2880, 2902, 2751
22899, 2115, 4865, 5578, 2114
22900, 1149, 1165, 3593, 3354
22901, 3377, 1184, 161, 1467
22902, 3248, 718, 884, 3234
22903, 1562, 4260, 248, 5712
22904, 4291, 1593, 259, 5713
22905, 2931, 2930, 721, 2712
22906, 4656, 4658, 4599, 1936
22907, 5123, 4791, 4777, 4783
22908, 4791, 4782, 5123, 4777
22909, 3355, 1141, 1173, 1174
22910, 599, 2694, 2693, 2698
22911, 4357, 298, 1630, 4478
22912, 328, 4562, 4459, 1726
22913, 2677, 2996, 2657, 2642
22914, 2205, 4965, 5502, 2206
22915, 276, 243, 254, 1570
22916, 3419, 3363, 3404, 3577
22917, 5123, 5113, 4782, 4791
22918, 5123, 4791, 4783, 5112
22919, 922, 3585, 1220, 1221
22920, 2653, 2985, 2677, 2685
22921, 1237, 1247, 3743, 3760
22922, 4633, 4644, 1947, 4657
22923, 5170, 5181, 5177, 4946
22924, 5170, 5175, 5178, 4944
22925, 1197, 3367, 3487, 3548
22926, 4167, 203, 1381, 4173
22927, 5431, 2331, 5150, 5154
22928, 5430, 5108, 5104, 2310
22929, 858, 2917, 859, 726
22930, 1156, 1155, 1159, 3559
22931, 3591, 3362, 3477, 1143
22932, 2862, 2759, 2738, 2736
22933, 2996, 3000, 2942, 2642
22934, 1173, 3355, 3278, 3588
22935, 2867, 2731, 2779, 2855
22936, 1825, 1912, 4578, 5743
22937, 2862, 2738, 2865, 2866
22938, 3763, 3937, 4005, 3741
22939, 42, 882, 2932, 2710
22940, 3372, 3294, 3632, 3539
22941, 3120, 3258, 3229, 3231
22942, 4013, 3671, 3716, 3763
22943, 5168, 4775, 4760, 4768
22944, 4775, 4760, 4766, 5168
22945, 3413, 4121, 1216, 3389
22946, 456, 4924, 2173, 5497
22947, 1217, 3633, 90, 3007
22948, 3253, 3257, 3087, 3213
22949, 5133, 4887, 5129, 5125
22950, 5131, 5125, 4889, 5134
22951, 4950, 4957, 4942, 5182
22952, 4942, 4957, 4949, 5182
22953, 3866, 3768, 3739, 3958
22954, 3239, 3241, 3075, 3265
22955, 3598, 3395, 3507, 3634
22956, 721, 2930, 887, 722
22957, 2631, 669, 2976, 2642
22958, 2864, 2724, 2781, 2762
22959, 5162, 5167, 4762, 5157
22960, 5157, 5161, 5165, 4764
22961, 3558, 3581, 3556, 3371
22962, 4117, 3602, 1205, 1204
22963, 1522, 4231, 4224, 5714
22964, 4257, 1552, 4250, 5715
22965, 4929, 4930, 457, 5745
22966, 2643, 653, 2655, 2980
22967, 2740, 2861, 2738, 2905
22968, 3404, 3363, 3321, 3577
22969, 3236, 990, 1004, 3118
22970, 4434, 4421, 329, 1748
22971, 4688, 1878, 4707, 5746
22972, 3245, 996, 997, 998
22973, 651, 653, 652, 2980
22974, 3600, 3411, 3280, 1169
22975, 2145, 2146, 4893, 2321
22976, 2018, 2000, 2001, 4891
22977, 2009, 4950, 2035, 2008
22978, 2341, 2196, 2195, 4949
22979, 1985, 2013, 1984, 4782
22980, 2056, 2057, 4783, 2316
22981, 1977, 1976, 4768, 2040
22982, 2336, 2045, 2044, 4766
22983, 3370, 3559, 3316, 3571
22984, 3296, 3318, 3379, 3531
22985, 668, 683, 667, 2700
22986, 1504, 4206, 4214, 4210
22987, 4232, 4236, 1531, 4240
22988, 2989, 2977, 2663, 2941
22989, 2856, 2845, 45, 2909
22990, 4775, 5168, 5158, 4768
22991, 999, 3262, 3211, 3077
22992, 662, 894, 895, 2990
22993, 4775, 4766, 5159, 5168
22994, 4909, 4905, 2156, 5514
22995, 3791, 1307, 190, 4168
22996, 4957, 4950, 5173, 5182
22997, 4957, 5172, 4949, 5182
22998, 995, 994, 999, 3077
22999, 3136, 3080, 3258, 3120
23000, 1961, 1717, 4718, 5757
23001, 5480, 5215, 5208, 2344
23002, 5259, 5252, 2360, 5481
23003, 3278, 3477, 1142, 3588
23004, 3273, 3293, 3271, 3599
23005, 1375, 4105, 161, 3871
23006, 4337, 1673, 311, 4349
23007, 268, 4261, 4266, 5712
23008, 282, 4289, 4292, 5713
23009, 3688, 3905, 4015, 3707
23010, 1132, 1131, 985, 4100
23011, 366, 4549, 4526, 4721
23012, 3365, 3370, 923, 3570
23013, 4393, 4395, 4385, 5739
23014, 3502, 3335, 3606, 3305
23015, 4549, 366, 373, 4721
23016, 561, 608, 562, 2531
23017, 5136, 4886, 4900, 4893
23018, 4891, 5136, 4886, 4900
23019, 4792, 5110, 5121, 4778
23020, 5119, 4780, 5110, 4792
23021, 1365, 4178, 1360, 3863
23022, 2732, 2867, 2872, 2731
23023, 3277, 1211, 3515, 3368
23024, 1468, 3396, 166, 3323
23025, 562, 563, 2465, 2593
23026, 4596, 4591, 4709, 1926
23027, 884, 2934, 719, 718
23028, 2701, 667, 683, 2700
23029, 4420, 4433, 340, 1767
23030, 4000, 3744, 4010, 3918
23031, 118, 151, 1290, 1289
23032, 991, 1003, 3101, 990
23033, 3252, 3111, 3112, 3113
23034, 1032, 4025, 3792, 1302
23035, 3141, 3089, 3235, 3123
23036, 1268, 178, 4123, 1183
23037, 3361, 3280, 1170, 3489
23038, 986, 1132, 985, 3808
23039, 3373, 3347, 3618, 3483
23040, 2519, 2491, 2583, 2584
23041, 3459, 3453, 3044, 3037
23042, 3765, 3995, 3700, 3867
23043, 4916, 454, 5482, 5501
23044, 864, 1108, 69, 863
23045, 2432, 5398, 5419, 5723
23046, 5336, 2433, 5418, 5722
23047, 45, 3169, 1029, 5725
23048, 5126, 5136, 4900, 4893
23049, 5127, 5136, 4891, 4900
23050, 2935, 2934, 884, 718
23051, 1027, 3200, 3193, 3195
23052, 3632, 3294, 3599, 3512
23053, 1293, 3670, 3948, 3739
23054, 5499, 4798, 2063, 5519
23055, 4929, 457, 2182, 5745
23056, 4584, 4605, 4591, 5759
23057, 658, 657, 647, 2668
23058, 2985, 2677, 2996, 2970
23059, 3565, 3395, 3625, 3598
23060, 2942, 668, 684, 2969
23061, 15, 597, 2704, 2614
23062, 671, 549, 687, 2696
23063, 1190, 3398, 3492, 1272
23064, 3433, 28, 673, 900
23065, 3592, 3384, 3361, 3489
23066, 3054, 690, 33, 3050
23067, 3245, 996, 998, 3125
23068, 468, 2205, 4967, 5496
23069, 1892, 4722, 1891, 4512
23070, 731, 5699, 48, 5700
23071, 3278, 3400, 3622, 3588
23072, 3682, 3669, 3744, 3918
23073, 2583, 2519, 2584, 2585
23074, 2916, 2917, 858, 726
23075, 717, 2932, 2936, 2711
23076, 4954, 460, 5414, 2185
23077, 4897, 423, 2106, 5415
23078, 2631, 2974, 3000, 2976
23079, 4252, 4256, 4282, 4283
23080, 4272, 4226, 4273, 4230
23081, 3506, 3538, 3376, 3372
23082, 1876, 4502, 4704, 1875
23083, 595, 594, 2598, 2599
23084, 669, 557, 2695, 2697
23085, 5113, 4779, 4782, 4791
23086, 4781, 4783, 4791, 5112
23087, 3627, 3384, 3592, 3489
23088, 3384, 3345, 3627, 3610
23089, 3575, 3358, 3405, 3357
23090, 1823, 4439, 1822, 1809
23091, 3194, 1025, 3201, 3197
23092, 4312, 4310, 4302, 5744
23093, 573, 574, 621, 2935
23094, 427, 5585, 4858, 2110
23095, 2599, 595, 594, 2485
23096, 1234, 3924, 3998, 3756
23097, 2593, 2592, 2465, 2591
23098, 1939, 4618, 4617, 4521
23099, 4382, 1691, 4331, 4330
23100, 5159, 4763, 4766, 4775
23101, 4403, 4402, 4467, 4405
23102, 4233, 1545, 5187, 4246
23103, 1519, 4220, 4207, 5186
23104, 4329, 4328, 1703, 4380
23105, 4412, 1768, 4448, 4413
23106, 5158, 4761, 4775, 4768
23107, 718, 3248, 3112, 3234
23108, 4098, 1200, 1257, 3808
23109, 2767, 612, 2891, 2721
23110, 2710, 42, 882, 716
23111, 1155, 1159, 3316, 1160
23112, 5398, 529, 2404, 5723
23113, 5336, 2403, 528, 5722
23114, 3459, 3042, 3030, 3037
23115, 1182, 3409, 4123, 1183
23116, 4167, 1318, 192, 4173
23117, 4369, 1621, 1599, 1598
23118, 3587, 3014, 3009, 913
23119, 556, 602, 603, 2699
23120, 623, 622, 575, 2933
23121, 3536, 3400, 3356, 3355
23122, 4957, 4950, 4943, 5173
23123, 4949, 4945, 5172, 4957
23124, 4251, 1580, 4286, 4254
23125, 4276, 4228, 1568, 4225
23126, 3742, 3935, 3716, 3763
23127, 3273, 3537, 3506, 3599
23128, 2924, 2839, 2917, 727
23129, 3561, 3331, 3285, 3307
23130, 4868, 2119, 2118, 5573
23131, 3243, 3120, 3080, 3110
23132, 3205, 3074, 717, 3111
23133, 1958, 4499, 4500, 1959
23134, 3212, 3264, 3810, 3821
23135, 3958, 3689, 3948, 4015
23136, 3088, 996, 3245, 3125
23137, 2687, 2966, 2688, 2652
23138, 4565, 329, 4417, 1748
23139, 3481, 4124, 1210, 3579
23140, 3444, 3033, 664, 897
23141, 1924, 368, 4634, 5705
23142, 5125, 4901, 4889, 5134
23143, 4877, 2136, 5511, 4884
23144, 3008, 3009, 3018, 3496
23145, 2174, 4918, 5513, 2175
23146, 3453, 3033, 3444, 3459
23147, 5133, 4901, 4887, 5125
23148, 2855, 2779, 2867, 2854
23149, 3401, 3330, 1186, 3555
23150, 3803, 4102, 4096, 987
23151, 4890, 5126, 4900, 4893
23152, 4891, 4888, 5127, 4900
23153, 5181, 5170, 4956, 4946
23154, 4956, 5170, 5178, 4944
23155, 3371, 1199, 3292, 3580
23156, 4110, 1294, 3872, 3737
23157, 4390, 4457, 4388, 5739
23158, 2669, 2986, 676, 2672
23159, 2999, 2980, 2643, 2689
23160, 3585, 3370, 922, 3291
23161, 1872, 4581, 4597, 5706
23162, 3557, 3558, 3317, 3382
23163, 368, 4576, 1912, 5743
23164, 5644, 5637, 2271, 2226
23165, 5609, 2077, 2240, 5616
23166, 4027, 4048, 5700, 5716
23167, 4840, 4838, 5651, 4835
23168, 5033, 5031, 5665, 5028
23169, 1638, 1639, 4366, 5747
23170, 4649, 4712, 4704, 5726
23171, 4935, 461, 2189, 5587
23172, 2662, 2973, 2974, 2991
23173, 611, 2788, 2718, 2768
23174, 899, 3433, 28, 3015
23175, 366, 4717, 1890, 1837
23176, 2792, 729, 46, 2849
23177, 4368, 1622, 1598, 1597
23178, 1609, 1610, 1608, 4373
23179, 3543, 3344, 3343, 3310
23180, 4688, 4687, 4690, 5755
23181, 4822, 5612, 4821, 5611
23182, 5626, 4985, 4986, 5625
23183, 5639, 5007, 5640, 5008
23184, 1293, 3948, 183, 3739
23185, 4883, 440, 5500, 2133
23186, 2860, 2873, 2858, 2728
23187, 4282, 4252, 4283, 4286
23188, 4226, 4273, 4276, 4272
23189, 3818, 1288, 1372, 3776
23190, 4220, 4215, 1419, 5186
23191, 3950, 3687, 3717, 3744
23192, 3633, 3567, 3475, 3403
23193, 5, 549, 687, 2457
23194, 712, 39, 888, 2707
23195, 1172, 3362, 1171, 1143
23196, 2983, 666, 682, 2940
23197, 4100, 1132, 4098, 3808
23198, 4242, 4237, 1546, 4244
23199, 4218, 4216, 4211, 1518
23200, 2311, 523, 4785, 5121
23201, 526, 4765, 5167, 2332
23202, 1585, 260, 288, 4295
23203, 251, 270, 4258, 1576
23204, 5075, 515, 491, 5037
23205, 508, 414, 5063, 4844
23206, 1323, 4103, 1324, 3824
23207, 3379, 3546, 3315, 3387
23208, 4350, 1656, 302, 4338
23209, 3322, 1150, 1165, 3593
23210, 1146, 3411, 1168, 3483
23211, 3262, 3240, 3109, 3208
23212, 3363, 3527, 3577, 3622
23213, 4224, 1571, 1505, 1506
23214, 1529, 4250, 1530, 1571
23215, 1152, 1162, 3596, 3364
23216, 1839, 354, 4458, 5529
23217, 4106, 3966, 1295, 3869
23218, 4910, 4906, 2150, 5577
23219, 3545, 3612, 3281, 3626
23220, 4319, 4301, 4365, 5747
23221, 3596, 3597, 1152, 3364
23222, 554, 601, 555, 2701
23223, 278, 5401, 1566, 1578
23224, 5400, 280, 1582, 1584
23225, 3356, 3590, 3536, 3589
23226, 4414, 4424, 4471, 5733
23227, 4425, 4294, 4293, 1595
23228, 4341, 1561, 4262, 4263
23229, 1810, 1823, 4445, 1824
23230, 1798, 1813, 1812, 4446
23231, 1701, 4369, 4378, 1868
23232, 1693, 4374, 4379, 1847
23233, 2974, 3000, 2985, 2685
23234, 2786, 2875, 2853, 2915
23235, 2599, 2596, 595, 2485
23236, 5077, 492, 514, 2253
23237, 118, 1021, 3153, 5716
23238, 4762, 5167, 4774, 5157
23239, 4774, 5157, 5165, 4764
23240, 624, 623, 576, 2712
23241, 709, 34, 581, 3072
23242, 4802, 4808, 4799, 5721
23243, 1609, 289, 294, 5702
23244, 3357, 3405, 3575, 3486
23245, 2387, 5278, 5456, 5481
23246, 5480, 2416, 5340, 5457
23247, 4307, 4305, 4355, 5744
23248, 1879, 4501, 4510, 4707
23249, 677, 27, 3022, 3439
23250, 4012, 3783, 3697, 3871
23251, 2875, 729, 2757, 2918
23252, 3912, 3729, 3947, 3962
23253, 2935, 2936, 573, 2711
23254, 523, 4785, 5121, 2054
23255, 4765, 2047, 526, 5167
23256, 1602, 5394, 4317, 1667
23257, 1142, 1141, 1173, 3588
23258, 3287, 3506, 3376, 3372
23259, 1795, 1836, 4407, 4467
23260, 175, 1288, 3818, 1261
23261, 4046, 4050, 3842, 4034
23262, 3370, 3559, 3365, 3316
23263, 3556, 3366, 3317, 3371
23264, 4390, 4389, 4457, 5739
23265, 3006, 916, 85, 1249
23266, 1202, 3286, 3811, 3573
23267, 1528, 1574, 4269, 4230
23268, 1588, 4256, 1553, 4279
23269, 722, 887, 721, 3215
23270, 2078, 4810, 2241, 4826
23271, 2542, 2595, 596, 2594
23272, 2497, 2495, 592, 2626
23273, 3293, 3388, 3401, 3578
23274, 4336, 268, 4266, 5712
23275, 282, 4419, 4289, 5713
23276, 596, 2510, 2595, 2542
23277, 234, 4127, 4149, 1471
23278, 4185, 237, 4160, 1486
23279, 3003, 3017, 908, 3006
23280, 2709, 2930, 577, 2712
23281, 2888, 2749, 2841, 2890
23282, 2065, 4793, 4796, 5508
23283, 2186, 4952, 385, 4727
23284, 2107, 4728, 383, 4895
23285, 3077, 994, 3262, 3109
23286, 4246, 4233, 1545, 4242
23287, 4207, 4216, 4220, 1519
23288, 3533, 3337, 3338, 3319
23289, 3357, 3405, 3486, 3276
23290, 3325, 3328, 3510, 3513
23291, 924, 892, 1223, 79
23292, 4685, 4709, 4591, 1926
23293, 410, 5579, 5646, 2445
23294, 5660, 2451, 487, 5580
23295, 2999, 671, 687, 2950
23296, 2531, 562, 2465, 2593
23297, 3146, 3256, 3107, 3238
23298, 182, 3582, 3583, 4114
23299, 4211, 4208, 4218, 1518
23300, 4234, 1546, 4237, 4244
23301, 3575, 3357, 3486, 3574
23302, 1574, 4272, 4269, 4230
23303, 4282, 4256, 1588, 4279
23304, 3330, 3401, 3388, 3578
23305, 2087, 417, 411, 5653
23306, 5667, 488, 486, 2243
23307, 5646, 5579, 416, 2444
23308, 2450, 5660, 485, 5580
23309, 3112, 3248, 3111, 3252
23310, 688, 30, 3070, 2704
23311, 2243, 5667, 488, 2244
23312, 2087, 2098, 417, 5653
23313, 3799, 4174, 4025, 5740
23314, 5529, 354, 4458, 1783
23315, 2141, 4882, 5578, 4878
23316, 3632, 3273, 3506, 3599
23317, 3009, 3496, 3621, 3587
23318, 1365, 4184, 202, 4178
23319, 3340, 1214, 4123, 1267
23320, 5398, 2432, 529, 5723
23321, 5336, 528, 2433, 5722
23322, 2625, 2495, 591, 2468
23323, 1183, 1268, 4005, 1184
23324, 3485, 3275, 3646, 3385
23325, 1155, 1159, 3559, 3316
23326, 3791, 191, 1307, 4166
23327, 2910, 861, 3199, 862
23328, 2728, 2873, 2924, 2760
23329, 410, 4836, 2445, 5646
23330, 5029, 2451, 487, 5660
23331, 3334, 3615, 3394, 3606
23332, 3279, 3601, 1167, 3373
23333, 2728, 2860, 2873, 2794
23334, 2774, 2767, 2891, 2721
23335, 49, 2800, 2834, 710
23336, 17, 546, 2833, 2804
23337, 4636, 350, 4497, 371
23338, 3103, 3132, 3240, 3135
23339, 367, 374, 4720, 4548
23340, 4005, 3653, 3741, 1268
23341, 681, 680, 18, 3045
23342, 565, 2529, 2461, 564
23343, 3398, 3323, 3584, 1191
23344, 3731, 3976, 3956, 3998
23345, 3296, 3529, 3530, 3531
23346, 2196, 2340, 442, 4951
23347, 384, 4953, 2034, 2009
23348, 2315, 4786, 393, 2057
23349, 1985, 378, 2012, 4789
23350, 2337, 2044, 393, 4770
23351, 1976, 378, 4772, 2041
23352, 384, 2000, 2019, 4898
23353, 4896, 442, 2145, 2322
23354, 1062, 781, 834, 3180
23355, 2531, 561, 608, 2604
23356, 2692, 543, 7, 2458
23357, 371, 4507, 4502, 5726
23358, 2863, 2861, 2740, 2905
23359, 4707, 1879, 363, 4598
23360, 3293, 3578, 3599, 3512
23361, 3270, 3620, 3566, 3298
23362, 4306, 4307, 4355, 5744
23363, 611, 612, 2795, 2767
23364, 4444, 4439, 1920, 1778
23365, 4442, 4440, 1921, 1770
23366, 561, 560, 607, 2604
23367, 5586, 4961, 4962, 2197
23368, 3639, 3513, 3325, 3608
23369, 3251, 985, 3117, 986
23370, 2690, 2638, 2975, 2946
23371, 5658, 2279, 5647, 4833
23372, 5672, 2290, 5661, 5026
23373, 2861, 2862, 2860, 2759
23374, 859, 726, 727, 3196
23375, 2729, 2867, 2730, 2727
23376, 4935, 2189, 464, 5586
23377, 1001, 3243, 992, 1002
23378, 648, 647, 657, 2978
23379, 1177, 3317, 1176, 1138
23380, 385, 4932, 2186, 4734
23381, 2107, 383, 4733, 4855
23382, 3317, 3557, 1176, 1138
23383, 577, 624, 2610, 2712
23384, 1581, 5402, 4280, 1582
23385, 1566, 1567, 5403, 4270
23386, 910, 908, 3004, 906
23387, 3342, 3478, 3322, 3375
23388, 841, 3179, 774, 1055
23389, 3144, 3136, 3258, 3120
23390, 1828, 1786, 4394, 4457
23391, 4311, 1707, 4355, 1688
23392, 4243, 4239, 4246, 4242
23393, 4216, 4217, 4213, 4220
23394, 331, 1719, 4385, 5739
23395, 3962, 1370, 3729, 3705
23396, 115, 1351, 3857, 1023
23397, 2733, 2925, 2761, 2921
23398, 2709, 721, 2930, 2712
23399, 2976, 2950, 670, 2679
23400, 5226, 4314, 1663, 1666
23401, 4396, 1756, 1764, 5270
23402, 4822, 5612, 4814, 4821
23403, 4978, 4985, 4986, 5626
23404, 5640, 5008, 5007, 5000
23405, 3528, 3320, 3536, 3527
23406, 3572, 3379, 3546, 3531
23407, 204, 1385, 4048, 5716
23408, 2980, 2991, 2656, 2950
23409, 4111, 3492, 180, 1272
23410, 3586, 3427, 3358, 3571
23411, 1759, 1751, 4397, 5269
23412, 1658, 4313, 5225, 1671
23413, 4649, 4504, 1876, 1877
23414, 5481, 2387, 5278, 2388
23415, 2416, 2417, 5480, 5340
23416, 1152, 1163, 1162, 3364
23417, 4858, 5588, 424, 2110
23418, 555, 668, 667, 2700
23419, 548, 652, 6, 2675
23420, 5451, 2379, 5321, 5465
23421, 5464, 5450, 2408, 5383
23422, 3618, 3645, 3373, 3483
23423, 4327, 4333, 4332, 5711
23424, 4386, 287, 288, 4290
23425, 271, 270, 4259, 4303
23426, 4929, 2185, 2186, 5745
23427, 176, 1181, 3865, 1262
23428, 2734, 2928, 2929, 2742
23429, 2854, 2852, 2725, 2864
23430, 3241, 720, 721, 3075
23431, 2289, 2290, 5076, 5026
23432, 5064, 2278, 2279, 4833
23433, 2701, 2694, 554, 2702
23434, 655, 2665, 2638, 2998
23435, 3200, 1027, 3158, 3195
23436, 2669, 2971, 2986, 2672
23437, 1979, 391, 4767, 1980
23438, 1982, 388, 1981, 4784
23439, 5382, 4754, 4749, 1968
23440, 4753, 4750, 1990, 5320
23441, 1910, 1796, 4717, 1837
23442, 1716, 1865, 1676, 4719
23443, 79, 924, 3022, 3438
23444, 1025, 3159, 3194, 3201
23445, 4218, 4206, 4208, 4210
23446, 4232, 4234, 4236, 4244
23447, 717, 76, 42, 3205
23448, 3866, 82, 3779, 1239
23449, 4229, 276, 243, 1526
23450, 1555, 276, 254, 4255
23451, 2934, 574, 719, 718
23452, 2136, 5515, 4879, 2135
23453, 5214, 1577, 5193, 5697
23454, 3401, 1187, 3271, 3562
23455, 1191, 181, 1274, 1273
23456, 3010, 1217, 90, 3007
23457, 684, 669, 668, 2942
23458, 212, 4198, 1411, 1415
23459, 2289, 5671, 5661, 5026
23460, 2278, 5657, 5647, 4833
23461, 2533, 607, 560, 2604
23462, 1733, 1766, 4467, 4405
23463, 3759, 4001, 3945, 3654
23464, 2877, 2913, 867, 5700
23465, 1191, 1274, 181, 4112
23466, 1271, 3479, 3554, 4107
23467, 5569, 436, 5546, 4874
23468, 3446, 3030, 3040, 3035
23469, 1586, 5258, 5237, 5696
23470, 711, 2708, 2930, 2709
23471, 456, 2174, 4924, 5497
23472, 3490, 1166, 1149, 3354
23473, 3526, 3547, 3631, 3314
23474, 3367, 1198, 1197, 3487
23475, 3494, 3613, 3560, 3430
23476, 2000, 2018, 2019, 5128
23477, 2040, 1976, 5160, 2041
23478, 5130, 2145, 2321, 2322
23479, 2336, 2044, 2337, 5163
23480, 5174, 2035, 2034, 2009
23481, 2196, 2341, 2340, 5176
23482, 2012, 2013, 1985, 5114
23483, 2057, 2315, 5116, 2316
23484, 2776, 2720, 2840, 2789
23485, 4341, 4336, 4326, 5712
23486, 4425, 4410, 4419, 5713
23487, 2695, 558, 604, 2609
23488, 718, 2935, 573, 2711
23489, 3697, 3783, 4108, 3871
23490, 3205, 3111, 3248, 3214
23491, 4183, 4182, 1361, 3864
23492, 4172, 1376, 4025, 4174
23493, 3448, 3038, 3456, 3455
23494, 3234, 719, 885, 3207
23495, 1198, 3367, 3292, 3487
23496, 2874, 2867, 2872, 2732
23497, 3110, 3231, 3120, 3116
23498, 732, 2715, 2762, 2886
23499, 3257, 3128, 3116, 3087
23500, 5547, 4915, 443, 5570
23501, 1112, 3191, 1029, 1113
23502, 3231, 3230, 3128, 3257
23503, 2863, 2777, 2744, 2772
23504, 1715, 4321, 313, 1674
23505, 1389, 4028, 1332, 4032
23506, 1187, 4107, 3479, 3562
23507, 1105, 1014, 4030, 1104
23508, 2862, 2761, 2759, 2736
23509, 2161, 4908, 2162, 5574
23510, 4015, 3689, 3688, 3707
23511, 3506, 3537, 3287, 3503
23512, 4425, 4428, 4294, 1595
23513, 1561, 4341, 4344, 4263
23514, 1357, 1020, 3152, 5750
23515, 2870, 2884, 2739, 2865
23516, 3440, 5725, 92, 5752
23517, 3411, 3373, 1168, 3483
23518, 5528, 1718, 322, 4356
23519, 587, 588, 2488, 2580
23520, 3648, 186, 118, 3680
23521, 1133, 1134, 4102, 987
23522, 3394, 3354, 3490, 3334
23523, 2462, 2497, 593, 2621
23524, 4283, 5408, 1581, 1580
23525, 5409, 1567, 1568, 4273
23526, 5164, 378, 392, 2041
23527, 2337, 393, 527, 5166
23528, 524, 442, 5135, 2322
23529, 2019, 387, 384, 5132
23530, 527, 442, 2340, 5180
23531, 5179, 392, 384, 2034
23532, 2012, 378, 387, 5118
23533, 393, 524, 5120, 2315
23534, 2861, 2862, 2759, 2738
23535, 5369, 5338, 1498, 5697
23536, 3165, 3191, 1029, 1112
23537, 3395, 3340, 3565, 3625
23538, 1124, 3840, 4031, 976
23539, 3293, 3273, 3294, 3599
23540, 3622, 3400, 3536, 3588
23541, 1923, 1925, 1941, 4611
23542, 730, 2877, 46, 5700
23543, 1480, 5276, 5307, 5696
23544, 2405, 5414, 5419, 5373
23545, 5311, 2376, 5415, 5418
23546, 2852, 2725, 2735, 2854
23547, 3835, 1014, 4030, 1015
23548, 5494, 5522, 4802, 2068
23549, 3087, 3237, 3257, 3253
23550, 1673, 4334, 311, 4490
23551, 3990, 3680, 3694, 1021
23552, 3817, 104, 3079, 3127
23553, 1029, 3191, 3162, 1113
23554, 2865, 2738, 2861, 2905
23555, 3110, 3243, 3231, 3210
23556, 612, 613, 2891, 2721
23557, 2966, 2671, 2668, 2687
23558, 2759, 2860, 2861, 2746
23559, 1211, 4124, 3603, 3579
23560, 2207, 2208, 4963, 5499
23561, 113, 4027, 5700, 5716
23562, 554, 600, 601, 2701
23563, 3557, 3317, 3556, 1138
23564, 4102, 3803, 3807, 987
23565, 2466, 568, 569, 2530
23566, 1385, 5700, 4048, 5716
23567, 3513, 3510, 3325, 3608
23568, 1638, 1654, 1639, 5747
23569, 416, 5652, 2098, 5646
23570, 485, 5666, 2243, 5660
23571, 3911, 4002, 3717, 4010
23572, 3815, 3811, 165, 1253
23573, 3704, 3650, 3762, 3975
23574, 1959, 4723, 4724, 5732
23575, 604, 1, 544, 2455
23576, 121, 3168, 1032, 5740
23577, 670, 686, 2950, 2976
23578, 5636, 2442, 2233, 5005
23579, 5608, 2084, 4819, 2448
23580, 2221, 2454, 4983, 5622
23581, 3542, 3535, 3543, 3310
23582, 2694, 554, 667, 2701
23583, 1257, 1200, 3581, 1199
23584, 2226, 5001, 5637, 4996
23585, 2077, 4810, 4815, 5609
23586, 4974, 2214, 5623, 4979
23587, 3760, 3954, 3721, 3707
23588, 3193, 3161, 3160, 1026
23589, 3700, 3720, 3765, 3867
23590, 2140, 2141, 5578, 4878
23591, 2392, 5473, 5291, 2391
23592, 2420, 2421, 5472, 5353
23593, 2489, 2488, 2467, 2569
23594, 3193, 3160, 3197, 1026
23595, 316, 321, 4351, 1677
23596, 349, 353, 1797, 4453
23597, 1148, 3490, 1166, 1149
23598, 3506, 3287, 3273, 3372
23599, 356, 4470, 1840, 5531
23600, 3738, 3657, 3954, 3721
23601, 4223, 213, 5185, 1528
23602, 3263, 3215, 722, 3134
23603, 2167, 2168, 5574, 4918
23604, 1721, 380, 4387, 5681
23605, 3261, 3250, 3235, 3089
23606, 3211, 3146, 995, 3077
23607, 1654, 308, 5704, 5747
23608, 1253, 3811, 165, 3573
23609, 3023, 28, 673, 3433
23610, 1134, 988, 3143, 1006
23611, 622, 575, 2934, 2629
23612, 4805, 4798, 2064, 5499
23613, 2949, 2635, 2659, 2658
23614, 2150, 4906, 2151, 5577
23615, 2289, 5077, 514, 5671
23616, 732, 2715, 2886, 2882
23617, 2584, 2491, 2583, 2568
23618, 339, 1795, 1909, 1836
23619, 3555, 3479, 4107, 3562
23620, 3042, 3459, 3449, 3443
23621, 2994, 2660, 2944, 2995
23622, 1104, 1014, 4030, 4036
23623, 1214, 1183, 3340, 4123
23624, 2795, 612, 611, 2842
23625, 2499, 2566, 2493, 2564
23626, 2594, 596, 595, 2596
23627, 558, 604, 544, 2455
23628, 2658, 2983, 2949, 2630
23629, 3371, 3558, 3581, 3580
23630, 3936, 4001, 3986, 3759
23631, 2884, 2743, 2739, 2905
23632, 2718, 564, 611, 2768
23633, 4590, 4606, 4586, 5728
23634, 3269, 3412, 3333, 3619
23635, 1941, 4635, 370, 4706
23636, 1142, 1172, 3278, 1173
23637, 2671, 2647, 2945, 2668
23638, 1213, 3340, 3395, 3625
23639, 4605, 4594, 4591, 5759
23640, 3571, 3370, 3559, 3570
23641, 585, 2587, 2463, 2539
23642, 3367, 1197, 3281, 3548
23643, 619, 620, 2936, 2711
23644, 615, 569, 568, 2530
23645, 2789, 2766, 609, 2791
23646, 87, 3587, 913, 3021
23647, 2914, 2774, 2836, 2785
23648, 1563, 4263, 4367, 4352
23649, 4454, 1596, 4294, 4469
23650, 710, 2834, 37, 2705
23651, 32, 546, 2703, 2833
23652, 938, 94, 737, 5751
23653, 599, 2694, 2698, 2702
23654, 1029, 3191, 3165, 3162
23655, 4122, 176, 1181, 3946
23656, 854, 761, 1038, 853
23657, 1076, 825, 790, 824
23658, 822, 821, 794, 1079
23659, 850, 765, 851, 1041
23660, 2421, 5362, 2422, 5468
23661, 5300, 2393, 5469, 2392
23662, 719, 720, 885, 3207
23663, 2699, 684, 668, 2700
23664, 2933, 2934, 719, 885
23665, 3771, 3671, 3947, 3946
23666, 564, 563, 2529, 2520
23667, 2582, 584, 2463, 2539
23668, 638, 585, 2587, 2534
23669, 3302, 3369, 3535, 3310
23670, 373, 4725, 1960, 5756
23671, 3589, 3355, 3275, 1174
23672, 1786, 330, 1901, 1828
23673, 301, 1707, 1688, 1856
23674, 2125, 2126, 4868, 5507
23675, 3236, 3101, 990, 3118
23676, 4253, 4283, 4249, 4251
23677, 4225, 4227, 4273, 4223
23678, 3519, 3297, 3321, 3368
23679, 3493, 3406, 1269, 3565
23680, 3935, 4013, 3997, 3716
23681, 3297, 3528, 3529, 3519
23682, 4734, 4925, 375, 2011
23683, 3394, 3615, 3541, 3606
23684, 3027, 923, 1221, 3435
23685, 1261, 1262, 1180, 3619
23686, 3231, 3210, 3237, 3116
23687, 2028, 5151, 5146, 4749
23688, 5100, 2021, 4750, 5105
23689, 1830, 1894, 4642, 1903
23690, 3347, 3346, 3348, 3618
23691, 2470, 2533, 560, 2604
23692, 2707, 888, 722, 3263
23693, 4046, 4030, 3835, 4036
23694, 3444, 3041, 3455, 896
23695, 2863, 2861, 2859, 2778
23696, 2491, 2518, 2583, 2568
23697, 4932, 4930, 2186, 5745
23698, 573, 574, 2935, 718
23699, 3865, 1181, 176, 3676
23700, 1637, 4322, 4365, 1674
23701, 3238, 3107, 3146, 3132
23702, 1134, 988, 1006, 107
23703, 159, 3865, 3776, 1372
23704, 164, 1259, 4104, 1201
23705, 3635, 3356, 3306, 3319
23706, 1461, 229, 1464, 4133
23707, 2393, 5467, 2394, 5290
23708, 5466, 2423, 5352, 2422
23709, 582, 642, 641, 2576
23710, 1814, 1799, 4442, 5738
23711, 2989, 2663, 2644, 2678
23712, 4710, 4637, 362, 1874
23713, 4281, 4277, 1438, 4280
23714, 4271, 4270, 1416, 4267
23715, 2622, 590, 2492, 2624
23716, 3592, 3329, 3609, 3636
23717, 903, 3437, 675, 902
23718, 5036, 2250, 5078, 5040
23719, 4843, 4847, 2093, 5066
23720, 5585, 5596, 4858, 2110
23721, 3109, 994, 3262, 1000
23722, 3117, 3101, 3236, 3118
23723, 3280, 3384, 3345, 3627
23724, 3601, 3490, 3615, 3279
23725, 48, 731, 3151, 5699
23726, 3611, 3478, 3629, 3342
23727, 4779, 5113, 5122, 4791
23728, 4781, 4791, 5122, 5112
23729, 1122, 42, 76, 3205
23730, 2135, 5507, 4881, 2134
23731, 3111, 3205, 3074, 3214
23732, 2583, 2461, 2491, 2519
23733, 1150, 1164, 3322, 1165
23734, 1875, 4511, 4710, 1874
23735, 729, 2757, 728, 2875
23736, 4928, 4932, 4927, 2180
23737, 1188, 3554, 3479, 4107
23738, 3161, 1027, 3193, 3195
23739, 5528, 322, 1689, 4356
23740, 3742, 3937, 3763, 3741
23741, 3804, 4099, 3819, 1322
23742, 3306, 3528, 3530, 3529
23743, 3155, 115, 3857, 1023
23744, 4997, 2270, 2269, 5055
23745, 2239, 5022, 2238, 4811
23746, 5046, 2261, 4975, 2260
23747, 3386, 165, 3286, 3573
23748, 3128, 3257, 3139, 3087
23749, 5006, 2231, 2440, 2232
23750, 2082, 4820, 2083, 2446
23751, 2220, 4984, 2452, 2219
23752, 3839, 4040, 4046, 4034
23753, 2395, 2394, 5462, 5301
23754, 5363, 2424, 2423, 5463
23755, 1878, 1877, 4500, 4705
23756, 5644, 4997, 2270, 5633
23757, 5605, 5616, 2239, 4811
23758, 5630, 5619, 4975, 2261
23759, 3768, 3718, 3743, 1238
23760, 2770, 2884, 2739, 2870
23761, 2117, 4864, 2118, 5564
23762, 3026, 3027, 676, 3435
23763, 5129, 2319, 2320, 2147
23764, 2335, 2334, 2046, 5162
23765, 2002, 2016, 2017, 5131
23766, 2038, 1978, 5161, 2039
23767, 2343, 2342, 2194, 5175
23768, 2036, 2007, 5177, 2037
23769, 1983, 2014, 2015, 5115
23770, 2318, 2055, 5117, 2317
23771, 3642, 3564, 3497, 3396
23772, 3624, 3405, 3575, 3535
23773, 4657, 4644, 1947, 4692
23774, 3347, 3373, 3411, 3483
23775, 3430, 3494, 3613, 3349
23776, 2189, 4935, 5587, 5597
23777, 3840, 4042, 1124, 4031
23778, 643, 27, 672, 905
23779, 3248, 3111, 718, 3112
23780, 3670, 3688, 3687, 3949
23781, 1167, 1148, 1147, 3601
23782, 1587, 1554, 1588, 4282
23783, 4272, 1575, 1527, 1574
23784, 2659, 2995, 2635, 2949
23785, 96, 1232, 3440, 5725
23786, 3243, 3231, 3120, 3110
23787, 3405, 3344, 3575, 3535
23788, 917, 3023, 919, 3433
23789, 3316, 3427, 3370, 3571
23790, 3211, 3256, 3146, 3238
23791, 1146, 3600, 3411, 3483
23792, 554, 555, 667, 2701
23793, 3605, 3476, 3386, 3573
23794, 726, 859, 3195, 3196
23795, 2437, 533, 2436, 5696
23796, 3356, 3635, 3590, 3319
23797, 1832, 1896, 4643, 1905
23798, 2569, 2568, 2490, 2570
23799, 3443, 3042, 936, 935
23800, 2936, 573, 620, 2935
23801, 1025, 3194, 3160, 3197
23802, 4270, 4227, 5403, 1417
23803, 4280, 1437, 5402, 4253
23804, 2675, 671, 8, 2457
23805, 2643, 6, 652, 2675
23806, 3554, 3479, 3566, 1188
23807, 2772, 2744, 2863, 2883
23808, 620, 619, 572, 2711
23809, 1302, 114, 3792, 1032
23810, 3562, 3271, 3293, 3599
23811, 1201, 1195, 164, 1259
23812, 3676, 3764, 3962, 3771
23813, 532, 2435, 2434, 5697
23814, 165, 1322, 3815, 1196
23815, 5351, 2424, 5458, 2425
23816, 2395, 5459, 2396, 5289
23817, 1904, 1895, 4625, 1903
23818, 5100, 4752, 2022, 5096
23819, 2029, 5146, 5142, 4751
23820, 996, 995, 998, 3125
23821, 560, 561, 2470, 2604
23822, 4246, 5187, 4233, 1452
23823, 4207, 4220, 1419, 5186
23824, 609, 2835, 2789, 2791
23825, 892, 924, 1223, 3420
23826, 2209, 5588, 4970, 4969
23827, 3823, 3814, 104, 979
23828, 1165, 1150, 1149, 3593
23829, 4570, 1920, 347, 4444
23830, 348, 1921, 4573, 4440
23831, 3775, 3751, 3874, 3649
23832, 1714, 4363, 4479, 1841
23833, 4561, 1835, 1899, 4465
23834, 3698, 3694, 3695, 3910
23835, 2889, 2836, 2888, 2748
23836, 4943, 5183, 4957, 5173
23837, 5172, 4945, 5183, 4957
23838, 3107, 3134, 3245, 3125
23839, 266, 5369, 5412, 2431
23840, 5413, 263, 2402, 5307
23841, 3358, 3586, 3571, 3575
23842, 562, 609, 2720, 2766
23843, 3557, 1176, 1139, 3359
23844, 2541, 2598, 594, 2599
23845, 2114, 5569, 430, 4870
23846, 3622, 3363, 3400, 3278
23847, 2492, 2468, 2565, 2624
23848, 4333, 291, 1690, 5535
23849, 1922, 4579, 1923, 4611
23850, 611, 610, 564, 2718
23851, 3077, 3262, 3240, 3135
23852, 2644, 2977, 2663, 2989
23853, 3109, 994, 1000, 993
23854, 3231, 3128, 3120, 3116
23855, 1607, 1611, 4379, 5742
23856, 617, 2764, 2897, 2763
23857, 1515, 4217, 4219, 1502
23858, 4245, 1541, 1533, 4243
23859, 3362, 3636, 3591, 3477
23860, 2891, 2774, 2721, 2836
23861, 737, 2878, 738, 5751
23862, 4866, 2122, 2123, 5506
23863, 2153, 4910, 445, 5501
23864, 4865, 2122, 5504, 2121
23865, 1222, 3435, 3026, 3432
23866, 3000, 2677, 2685, 2642
23867, 453, 2172, 4923, 5570
23868, 2178, 2177, 5505, 4921
23869, 1134, 4096, 4102, 987
23870, 5610, 5611, 4817, 5604
23871, 4981, 5625, 5618, 5624
23872, 5638, 5632, 5639, 5003
23873, 2510, 596, 597, 2542
23874, 5454, 2426, 5364, 2425
23875, 2396, 5455, 2397, 5302
23876, 3042, 936, 3039, 3443
23877, 3635, 3530, 3533, 3319
23878, 717, 883, 76, 3205
23879, 3394, 3615, 3279, 3429
23880, 2083, 401, 2447, 4816
23881, 448, 2220, 4980, 2453
23882, 3080, 3208, 3258, 3243
23883, 3444, 664, 3033, 3041
23884, 3640, 3628, 4120, 3417
23885, 2740, 2772, 2777, 2863
23886, 4145, 4127, 1471, 4147
23887, 4205, 4158, 1486, 4185
23888, 2726, 2896, 2747, 2729
23889, 5159, 4763, 4775, 5169
23890, 887, 2930, 888, 722
23891, 317, 4378, 4484, 1868
23892, 2529, 565, 2461, 2585
23893, 4761, 4775, 5169, 5158
23894, 1450, 4245, 1449, 5684
23895, 4219, 1421, 1422, 5683
23896, 4487, 4374, 318, 1847
23897, 3575, 3571, 3358, 3574
23898, 246, 242, 1512, 4206
23899, 4795, 2070, 5576, 2071
23900, 2857, 2847, 2912, 724
23901, 606, 607, 560, 2533
23902, 2124, 4867, 2123, 5511
23903, 13, 709, 710, 2705
23904, 4, 688, 2703, 546
23905, 2887, 2776, 2840, 2789
23906, 1464, 1460, 1461, 4133
23907, 1823, 4445, 4439, 1809
23908, 3779, 1279, 1280, 1194
23909, 2445, 5646, 4836, 5650
23910, 5660, 2451, 5664, 5029
23911, 2125, 4864, 2124, 5515
23912, 910, 1280, 87, 3021
23913, 4256, 1588, 1554, 4282
23914, 1574, 1527, 4272, 4230
23915, 1452, 4248, 4241, 5684
23916, 4222, 1419, 4215, 5683
23917, 374, 4724, 1963, 5755
23918, 3787, 1312, 3798, 3796
23919, 5510, 2176, 4920, 2177
23920, 3584, 3583, 3582, 3323
23921, 3866, 82, 1194, 3779
23922, 3370, 922, 923, 3570
23923, 3864, 3857, 1351, 1023
23924, 3315, 3386, 3605, 3391
23925, 3995, 3700, 3867, 3970
23926, 3803, 164, 4104, 1201
23927, 4919, 2176, 5514, 2175
23928, 1670, 1658, 1605, 1671
23929, 1763, 1764, 1756, 1816
23930, 1751, 1759, 1760, 1820
23931, 1666, 1663, 1601, 1667
23932, 3263, 722, 3088, 3134
23933, 4229, 243, 1570, 1506
23934, 254, 1570, 1530, 4255
23935, 1717, 365, 4718, 5757
23936, 1482, 234, 1480, 4149
23937, 237, 4160, 1494, 1498
23938, 726, 2917, 859, 727
23939, 1814, 1813, 1799, 5738
23940, 720, 2933, 719, 885
23941, 668, 669, 684, 2699
23942, 3321, 3363, 3320, 3527
23943, 2672, 2669, 2971, 2647
23944, 2999, 2643, 652, 2675
23945, 3237, 3257, 3231, 3116
23946, 2773, 2721, 2774, 2836
23947, 459, 466, 5487, 2199
23948, 3578, 3388, 3634, 3512
23949, 4744, 1995, 1996, 5313
23950, 1973, 1974, 5375, 4743
23951, 177, 1469, 3550, 3491
23952, 3562, 3293, 3578, 3599
23953, 4890, 4900, 5126, 5137
23954, 4900, 4888, 5127, 5137
23955, 3729, 3912, 1370, 3962
23956, 902, 675, 903, 2988
23957, 2532, 2479, 2577, 2475
23958, 4015, 3960, 3688, 3949
23959, 2972, 2671, 2945, 2966
23960, 3650, 3704, 1366, 3975
23961, 4880, 5559, 4875, 2140
23962, 4706, 1942, 1941, 5701
23963, 21, 580, 709, 710
23964, 612, 566, 565, 2585
23965, 3394, 3416, 3335, 3606
23966, 5123, 5122, 5113, 4791
23967, 4791, 5123, 5122, 5112
23968, 3946, 3671, 3947, 3873
23969, 4214, 4221, 1504, 4210
23970, 4240, 4236, 1531, 4247
23971, 416, 5591, 4842, 5652
23972, 485, 5590, 5035, 5666
23973, 1190, 3398, 3584, 1191
23974, 1179, 3826, 3812, 3822
23975, 726, 2728, 2924, 2760
23976, 4169, 3796, 3798, 1317
23977, 4902, 2155, 5505, 2154
23978, 1318, 4166, 3798, 4167
23979, 5370, 5399, 5341, 5745
23980, 2178, 5503, 2179, 4922
23981, 3329, 3513, 3328, 3327
23982, 2940, 2949, 2983, 2630
23983, 1979, 5165, 391, 2038
23984, 1982, 2015, 388, 5119
23985, 5579, 5646, 2445, 2444
23986, 2451, 5660, 2450, 5580
23987, 152, 1119, 3199, 2920
23988, 1621, 4369, 4368, 1598
23989, 2750, 2776, 2894, 2887
23990, 3425, 3367, 3612, 3337
23991, 2655, 2656, 2643, 2980
23992, 1488, 4161, 4193, 1489
23993, 1474, 1473, 4150, 4134
23994, 492, 5077, 5038, 2253
23995, 1487, 4159, 4187, 1488
23996, 1473, 1472, 4148, 4128
23997, 649, 2943, 2665, 2998
23998, 2791, 2766, 610, 2718
23999, 27, 677, 905, 3439
24000, 4164, 1492, 4189, 1491
24001, 3961, 3997, 3947, 3772
24002, 888, 887, 722, 3215
24003, 4385, 1719, 1724, 5739
24004, 344, 4424, 1782, 5538
24005, 3475, 3567, 3341, 3403
24006, 1467, 1269, 179, 3493
24007, 563, 609, 562, 2766
24008, 1505, 1511, 1512, 4212
24009, 1512, 1529, 4238, 1511
24010, 4113, 1275, 3497, 3642
24011, 608, 609, 562, 2531
24012, 151, 1289, 1421, 4157
24013, 150, 4146, 1450, 1292
24014, 3545, 3391, 3605, 3626
24015, 3248, 3112, 3234, 3252
24016, 555, 602, 556, 2700
24017, 2864, 2723, 2722, 2893
24018, 604, 603, 557, 2609
24019, 624, 576, 623, 2610
24020, 4243, 4247, 4239, 4242
24021, 4216, 4217, 4221, 4213
24022, 1189, 3492, 4111, 3398
24023, 3241, 721, 887, 3215
24024, 5299, 2391, 5475, 2390
24025, 2420, 5474, 2419, 5361
24026, 2510, 2471, 596, 2595
24027, 974, 973, 50, 102
24028, 2074, 5594, 402, 4809
24029, 5593, 4973, 469, 2211
24030, 475, 2223, 5595, 4995
24031, 2189, 4935, 5597, 5586
24032, 584, 639, 585, 2539
24033, 5310, 5420, 2402, 5421
24034, 5422, 2431, 5423, 5372
24035, 2968, 2659, 2664, 2661
24036, 2766, 563, 610, 2718
24037, 2757, 2753, 2735, 2851
24038, 1410, 1411, 4196, 1415
24039, 1871, 1945, 4610, 1870
24040, 2655, 2946, 2638, 2676
24041, 3275, 3485, 3359, 3385
24042, 422, 468, 2204, 5491
24043, 4098, 4102, 1258, 3807
24044, 3486, 1161, 3357, 3276
24045, 3077, 3240, 3211, 3132
24046, 2518, 2583, 2592, 2499
24047, 3591, 3592, 3361, 3489
24048, 3609, 3513, 3328, 3329
24049, 4162, 1490, 4188, 1489
24050, 4151, 1474, 4129, 1475
24051, 2520, 563, 2529, 2593
24052, 1274, 1191, 3424, 4112
24053, 2625, 592, 2495, 2626
24054, 4778, 4792, 5110, 4790
24055, 4780, 5110, 4792, 4790
24056, 2390, 5476, 5292, 2389
24057, 2418, 2419, 5477, 5354
24058, 3327, 3513, 3639, 3610
24059, 4194, 4163, 1491, 1490
24060, 1475, 4152, 1476, 4135
24061, 2529, 2592, 2461, 2520
24062, 563, 610, 609, 2766
24063, 3545, 3281, 3612, 3425
24064, 2723, 47, 2893, 2852
24065, 3872, 4017, 1294, 4110
24066, 3334, 3354, 3594, 3392
24067, 4314, 5210, 5226, 1664
24068, 1757, 4396, 5254, 5270
24069, 609, 610, 563, 2593
24070, 4779, 5122, 4790, 4791
24071, 4791, 5122, 4790, 4781
24072, 2441, 2232, 441, 5002
24073, 1512, 4206, 1505, 4212
24074, 4238, 1529, 1512, 4232
24075, 3161, 3158, 1027, 3195
24076, 576, 623, 575, 2933
24077, 556, 603, 557, 2699
24078, 2657, 2987, 2659, 2658
24079, 3423, 3478, 1164, 3322
24080, 1641, 4302, 1628, 5744
24081, 2860, 2862, 2906, 2794
24082, 4024, 1381, 1380, 4173
24083, 4457, 4390, 1749, 4392
24084, 4309, 4355, 4307, 1655
24085, 3209, 3259, 3260, 3078
24086, 4218, 4216, 4221, 4210
24087, 4242, 4247, 4236, 4244
24088, 2909, 2845, 45, 3198
24089, 5404, 210, 4069, 1422
24090, 5405, 223, 1449, 4081
24091, 1290, 186, 118, 1289
24092, 2139, 5523, 437, 4882
24093, 3490, 3593, 3594, 3354
24094, 1469, 1216, 4121, 3389
24095, 1455, 4091, 4144, 4090
24096, 4204, 4057, 4058, 1405
24097, 1869, 4607, 4495, 4494
24098, 3194, 3160, 3159, 1025
24099, 2762, 2886, 2722, 2784
24100, 2995, 2994, 2660, 2635
24101, 562, 609, 608, 2720
24102, 5555, 2119, 428, 4869
24103, 4283, 4251, 1580, 4286
24104, 4225, 1568, 4276, 4273
24105, 120, 1030, 3168, 1373
24106, 4264, 1562, 248, 5712
24107, 259, 1593, 4287, 5713
24108, 2922, 2884, 2770, 2870
24109, 2728, 2858, 2860, 2783
24110, 1189, 4111, 163, 1190
24111, 5699, 5700, 3153, 5716
24112, 4217, 1418, 4219, 1502
24113, 1453, 4245, 1533, 4243
24114, 3505, 3506, 3538, 3376
24115, 816, 970, 33, 817
24116, 3737, 3872, 1190, 3938
24117, 859, 858, 726, 3195
24118, 677, 3022, 3432, 3439
24119, 4957, 4955, 5183, 4943
24120, 4955, 5183, 4945, 4957
24121, 3552, 3546, 3628, 3387
24122, 3334, 3394, 3335, 3606
24123, 2992, 2667, 2671, 2688
24124, 24, 3011, 3020, 3001
24125, 2888, 2749, 2775, 2841
24126, 4265, 4328, 1564, 4336
24127, 1592, 4288, 4419, 4412
24128, 3304, 3334, 3594, 3392
24129, 3075, 3106, 3239, 3090
24130, 1623, 291, 4333, 4300
24131, 2698, 2694, 666, 2702
24132, 3007, 90, 918, 3285
24133, 3720, 1367, 3929, 3650
24134, 712, 715, 2707, 722
24135, 2886, 2893, 2722, 2784
24136, 4027, 1011, 1100, 4037
24137, 4773, 4775, 4763, 5169
24138, 5169, 4773, 4775, 4761
24139, 1961, 372, 4726, 5746
24140, 1607, 1608, 1611, 5742
24141, 1205, 3602, 4118, 3480
24142, 3798, 1318, 4173, 1317
24143, 3356, 3320, 3400, 3536
24144, 3283, 3360, 3614, 3402
24145, 2468, 591, 2625, 2624
24146, 113, 5700, 5699, 5716
24147, 669, 668, 556, 2699
24148, 575, 2933, 719, 720
24149, 3427, 3586, 3585, 3571
24150, 4858, 5596, 5588, 2110
24151, 4125, 3312, 1213, 1212
24152, 3478, 1151, 3597, 3423
24153, 1151, 1163, 3597, 3423
24154, 4820, 2082, 5615, 2446
24155, 5629, 2452, 4984, 2219
24156, 2440, 5643, 2231, 5006
24157, 1845, 1844, 1859, 1850
24158, 1896, 1895, 1904, 1915
24159, 2583, 2461, 2519, 2585
24160, 4828, 5611, 5610, 5605
24161, 4992, 5625, 5624, 5619
24162, 5638, 5633, 5014, 5639
24163, 2668, 2978, 2966, 2687
24164, 580, 21, 581, 2613
24165, 3416, 3348, 3541, 3429
24166, 5173, 5183, 4957, 5182
24167, 5183, 5172, 4957, 5182
24168, 3322, 3478, 1150, 3593
24169, 3848, 3855, 1346, 3844
24170, 2736, 2862, 2871, 2866
24171, 1262, 3865, 176, 3676
24172, 3322, 3593, 3354, 3392
24173, 2592, 2499, 2591, 2564
24174, 607, 608, 561, 2604
24175, 1194, 3349, 3494, 3268
24176, 2598, 2596, 595, 2599
24177, 3535, 3624, 3405, 3369
24178, 564, 610, 611, 2529
24179, 2728, 2860, 2794, 2783
24180, 673, 3436, 3023, 3433
24181, 1380, 1381, 203, 4173
24182, 4173, 1318, 192, 1317
24183, 3240, 3238, 3211, 3132
24184, 3367, 3337, 3408, 3612
24185, 2134, 440, 5500, 4883
24186, 2863, 2777, 2751, 2744
24187, 2860, 2759, 2783, 2746
24188, 572, 619, 2710, 2711
24189, 1589, 1588, 1553, 4279
24190, 1574, 4269, 1573, 1528
24191, 3661, 3953, 3745, 3765
24192, 1780, 4414, 4450, 4415
24193, 2999, 5, 687, 2457
24194, 39, 888, 2707, 3263
24195, 2671, 2972, 2992, 2966
24196, 3874, 3751, 3999, 3950
24197, 3261, 3234, 3112, 3252
24198, 198, 1496, 4184, 4176
24199, 3207, 3083, 720, 3075
24200, 2774, 2773, 2836, 2785
24201, 1225, 3457, 1224, 3468
24202, 2897, 616, 617, 2763
24203, 4889, 4899, 4901, 5125
24204, 4899, 4887, 4901, 5125
24205, 1895, 1894, 1903, 1914
24206, 1846, 1845, 1858, 1849
24207, 2933, 575, 576, 720
24208, 557, 669, 556, 2699
24209, 2130, 5602, 438, 4883
24210, 3277, 3515, 3509, 3511
24211, 985, 3253, 1131, 1132
24212, 1527, 1574, 1528, 4230
24213, 1553, 4256, 1588, 1554
24214, 4458, 5527, 325, 1839
24215, 4955, 4956, 5170, 4946
24216, 4944, 4956, 5170, 4955
24217, 1179, 3826, 3822, 1328
24218, 1906, 1907, 4640, 1898
24219, 3433, 673, 3436, 900
24220, 3405, 3575, 3486, 3624
24221, 2766, 610, 609, 2791
24222, 3348, 3645, 3541, 3429
24223, 2662, 2974, 2653, 2685
24224, 23, 660, 644, 2691
24225, 3535, 3542, 3523, 3310
24226, 569, 2579, 2466, 2530
24227, 2739, 2738, 2865, 2905
24228, 3971, 4106, 3945, 3869
24229, 2978, 2993, 2632, 2943
24230, 2243, 488, 486, 5492
24231, 5493, 417, 411, 2087
24232, 4289, 4419, 282, 1592
24233, 268, 4266, 1564, 4336
24234, 372, 5746, 1961, 5757
24235, 3366, 3556, 1177, 1137
24236, 112, 1019, 3851, 3848
24237, 4888, 4900, 4899, 5137
24238, 4899, 4900, 4890, 5137
24239, 488, 2243, 2244, 5492
24240, 417, 5493, 2098, 2087
24241, 899, 2997, 3012, 2941
24242, 371, 4497, 4511, 4502
24243, 1023, 5699, 3155, 5750
24244, 5269, 1750, 4397, 5253
24245, 4313, 5225, 5209, 1657
24246, 2587, 585, 586, 2534
24247, 566, 567, 2464, 2528
24248, 5423, 5211, 2359, 5422
24249, 2375, 5421, 5420, 5255
24250, 2731, 2867, 2872, 2855
24251, 3541, 3615, 3394, 3429
24252, 1859, 1710, 1845, 4606
24253, 2529, 2592, 2583, 2461
24254, 4872, 5569, 430, 5546
24255, 2862, 2860, 2759, 2794
24256, 3488, 3614, 3586, 3402
24257, 1191, 3775, 3999, 3874
24258, 680, 18, 9, 2527
24259, 3743, 3689, 3768, 3958
24260, 2879, 737, 2797, 2880
24261, 2922, 2770, 2928, 2870
24262, 5159, 4775, 5168, 5169
24263, 5457, 5215, 5480, 2344
24264, 5259, 2360, 5456, 5481
24265, 4775, 5168, 5169, 5158
24266, 3559, 1159, 1156, 3365
24267, 1161, 3486, 1154, 1153
24268, 612, 566, 2585, 2528
24269, 3344, 3543, 3535, 3310
24270, 3824, 1323, 1128, 3264
24271, 4302, 1641, 306, 5744
24272, 4553, 4519, 1825, 5743
24273, 3485, 3557, 1139, 3359
24274, 858, 726, 3195, 725
24275, 891, 890, 2938, 3438
24276, 2592, 2566, 2518, 2499
24277, 3088, 41, 722, 3263
24278, 1496, 4184, 4176, 4178
24279, 2671, 2647, 2972, 2945
24280, 4917, 5547, 453, 5570
24281, 603, 602, 556, 2544
24282, 1932, 4603, 4647, 4585
24283, 4652, 1950, 1951, 4626
24284, 4280, 4279, 4249, 4283
24285, 4273, 4270, 4269, 4223
24286, 1431, 1416, 213, 4267
24287, 220, 4277, 1438, 1439
24288, 2895, 2781, 2715, 2762
24289, 5400, 260, 1585, 1583
24290, 251, 5401, 1576, 1560
24291, 4016, 3954, 3951, 3721
24292, 4220, 4213, 4216, 4207
24293, 4239, 4233, 4246, 4242
24294, 5669, 5089, 2285, 5074
24295, 2274, 5062, 5655, 5086
24296, 5641, 5083, 2265, 5053
24297, 5627, 5044, 5080, 2256
24298, 5613, 5068, 2234, 5020
24299, 3257, 3128, 3231, 3116
24300, 2875, 2919, 728, 2918
24301, 25, 3016, 3011, 2636
24302, 3593, 1165, 3322, 3354
24303, 3535, 3405, 3344, 3369
24304, 3435, 3026, 923, 1222
24305, 3379, 3391, 3545, 3425
24306, 44, 2780, 2902, 723
24307, 3360, 3544, 3543, 3343
24308, 569, 615, 2579, 2530
24309, 3540, 3538, 3346, 3618
24310, 560, 559, 606, 2533
24311, 4012, 1269, 3783, 1184
24312, 5608, 4819, 5604, 2448
24313, 5618, 4983, 2454, 5622
24314, 2442, 5636, 5632, 5005
24315, 46, 729, 3199, 2920
24316, 616, 570, 569, 2579
24317, 5044, 5627, 5049, 2256
24318, 5062, 2274, 5655, 5067
24319, 5058, 5641, 2265, 5053
24320, 5079, 5669, 2285, 5074
24321, 5025, 5613, 2234, 5020
24322, 574, 575, 2934, 719
24323, 556, 668, 555, 2700
24324, 1190, 3584, 3398, 1272
24325, 1308, 1309, 3790, 3794
24326, 47, 2893, 2850, 2913
24327, 4104, 4096, 3802, 1321
24328, 4700, 1930, 4590, 4603
24329, 5126, 4900, 5136, 5137
24330, 4900, 5127, 5136, 5137
24331, 4920, 2169, 5566, 2170
24332, 4932, 386, 4928, 4756
24333, 2657, 667, 668, 2969
24334, 3633, 90, 3007, 3285
24335, 4774, 4773, 4762, 5157
24336, 5157, 4774, 4773, 4764
24337, 1540, 1534, 1449, 4245
24338, 3354, 3594, 3490, 3334
24339, 398, 4801, 2061, 5516
24340, 897, 3444, 3033, 3458
24341, 651, 654, 653, 2655
24342, 2102, 4853, 421, 4849
24343, 987, 988, 3143, 1134
24344, 934, 3454, 933, 944
24345, 2534, 2580, 586, 2627
24346, 2873, 2906, 2924, 2760
24347, 1175, 3485, 1139, 3359
24348, 5616, 5605, 4815, 4811
24349, 4979, 5630, 5619, 4975
24350, 5633, 5644, 4997, 5001
24351, 2738, 2739, 2740, 2905
24352, 4212, 1511, 4218, 1517
24353, 4244, 4238, 1547, 1511
24354, 2928, 2734, 2769, 2742
24355, 3626, 3612, 3281, 3548
24356, 1897, 1896, 1905, 1916
24357, 445, 4914, 5482, 5501
24358, 3208, 3109, 3262, 1000
24359, 3256, 3134, 3245, 3107
24360, 2837, 48, 867, 2913
24361, 2764, 735, 617, 2897
24362, 1551, 5408, 1550, 4251
24363, 1524, 1523, 4225, 5409
24364, 1201, 1195, 1259, 3421
24365, 2643, 2999, 2689, 2675
24366, 2987, 2659, 2661, 2657
24367, 601, 600, 554, 2540
24368, 2939, 2986, 676, 2669
24369, 3775, 3751, 3999, 3874
24370, 3737, 1190, 1272, 3938
24371, 2597, 2616, 2512, 2617
24372, 3557, 3359, 3568, 3428
24373, 1401, 4066, 1418, 4055
24374, 1436, 4088, 1453, 4078
24375, 4553, 1825, 4608, 5743
24376, 4184, 1496, 202, 4178
24377, 1716, 1675, 4365, 5747
24378, 5645, 5654, 411, 5653
24379, 5659, 5668, 488, 5667
24380, 923, 922, 3027, 1221
24381, 1907, 1908, 4640, 1899
24382, 681, 26, 29, 2698
24383, 1290, 151, 118, 3203
24384, 2979, 2993, 2943, 2686
24385, 1294, 4017, 1374, 4110
24386, 1865, 1864, 4582, 5718
24387, 652, 653, 6, 2643
24388, 2547, 2532, 2577, 2475
24389, 2761, 2862, 2871, 2736
24390, 3306, 3318, 3530, 3319
24391, 2049, 296, 377, 4758
24392, 324, 379, 4757, 2051
24393, 1290, 118, 186, 3203
24394, 2063, 4800, 2062, 5519
24395, 3912, 3661, 3745, 3728
24396, 4248, 4245, 1450, 5684
24397, 1421, 4219, 4222, 5683
24398, 4109, 3377, 1467, 3493
24399, 21, 642, 581, 2543
24400, 1815, 1814, 1800, 337
24401, 1606, 1607, 1612, 310
24402, 1599, 1600, 1620, 309
24403, 1822, 1821, 1808, 336
24404, 3851, 3855, 1346, 3848
24405, 3275, 3485, 1175, 3359
24406, 2591, 2562, 2522, 2605
24407, 4494, 4495, 319, 1704
24408, 4578, 346, 1825, 4577
24409, 2914, 2867, 2730, 2729
24410, 4279, 4282, 4256, 4283
24411, 4272, 4273, 4269, 4230
24412, 3562, 3537, 3271, 3599
24413, 3494, 1280, 1194, 3268
24414, 1293, 183, 3948, 1193
24415, 1465, 96, 4089, 1111
24416, 1414, 141, 1121, 4056
24417, 2154, 4906, 2153, 5503
24418, 5341, 5373, 5370, 5745
24419, 2753, 47, 2852, 2850
24420, 675, 3027, 3024, 3437
24421, 3852, 1355, 3862, 1354
24422, 2169, 4919, 5565, 2168
24423, 2622, 2492, 589, 2623
24424, 2397, 5449, 2398, 5288
24425, 5448, 2427, 5350, 2426
24426, 1325, 103, 1336, 3814
24427, 3492, 3563, 3584, 3398
24428, 4932, 4927, 2180, 4930
24429, 2097, 5652, 2443, 5657
24430, 2254, 2449, 5671, 5666
24431, 4346, 4330, 4333, 5702
24432, 3954, 3657, 3760, 3721
24433, 1191, 3874, 1192, 4112
24434, 4421, 4417, 329, 1748
24435, 3349, 3494, 1279, 1194
24436, 2647, 2971, 2672, 2972
24437, 5509, 2207, 4963, 5499
24438, 3355, 3400, 3278, 3588
24439, 3507, 3625, 3395, 3598
24440, 2497, 2561, 2495, 2626
24441, 287, 4290, 4454, 1596
24442, 271, 1563, 4352, 4259
24443, 1840, 4472, 344, 5538
24444, 4497, 1873, 4636, 4511
24445, 2864, 2852, 2723, 2893
24446, 3912, 3961, 3745, 4014
24447, 1673, 311, 4334, 4337
24448, 616, 569, 615, 2579
24449, 1377, 1376, 4020, 4172
24450, 1362, 1361, 4182, 3859
24451, 1517, 4208, 4212, 1509
24452, 1536, 1547, 4234, 4238
24453, 2845, 857, 74, 3198
24454, 2977, 2663, 673, 2644
24455, 4282, 1554, 4256, 4252
24456, 4226, 4272, 1527, 4230
24457, 1723, 4456, 1724, 1719
24458, 1628, 1627, 1641, 4354
24459, 2757, 2717, 728, 2875
24460, 3359, 3485, 3557, 3568
24461, 1273, 1190, 1191, 3938
24462, 1305, 3787, 1306, 4023
24463, 3563, 3564, 3642, 3396
24464, 3816, 3308, 160, 1202
24465, 3231, 3120, 3258, 3243
24466, 8, 671, 551, 2457
24467, 3477, 3278, 3622, 3588
24468, 3873, 1182, 178, 1183
24469, 1767, 340, 4420, 4418
24470, 1997, 352, 356, 5304
24471, 5366, 289, 293, 1975
24472, 3013, 678, 3012, 2997
24473, 1739, 1734, 1735, 4468
24474, 5664, 5660, 5029, 5668
24475, 4836, 5646, 5654, 5650
24476, 5643, 2269, 4997, 5633
24477, 5615, 5605, 2238, 4811
24478, 5619, 5629, 4975, 2260
24479, 4206, 242, 1512, 1505
24480, 1512, 1529, 253, 4232
24481, 727, 2839, 859, 860
24482, 3432, 905, 677, 3439
24483, 3055, 706, 596, 3070
24484, 1935, 1934, 4646, 4587
24485, 3506, 3538, 3372, 3539
24486, 2563, 2495, 2625, 2468
24487, 614, 568, 2606, 2530
24488, 2493, 2499, 2564, 2494
24489, 3958, 1238, 3743, 1237
24490, 1234, 3868, 3756, 3713
24491, 735, 2899, 617, 2897
24492, 597, 2614, 2615, 2542
24493, 4288, 283, 1594, 4412
24494, 4265, 272, 4328, 1565
24495, 3268, 3430, 3494, 3621
24496, 1894, 333, 1902, 1913
24497, 304, 1846, 1857, 1848
24498, 3406, 3377, 3299, 3493
24499, 2623, 2492, 589, 2467
24500, 117, 1358, 3864, 5750
24501, 2519, 565, 566, 2585
24502, 3425, 3367, 3281, 3612
24503, 1520, 4220, 1519, 5186
24504, 1544, 5187, 1545, 4246
24505, 352, 1824, 355, 5733
24506, 3357, 3358, 3316, 3574
24507, 3797, 1315, 4170, 1314
24508, 2793, 2747, 2895, 2890
24509, 3478, 3597, 3629, 3342
24510, 586, 587, 2580, 2534
24511, 584, 693, 694, 3057
24512, 3357, 3486, 3574, 1154
24513, 3948, 4115, 1193, 1192
24514, 2853, 2757, 2735, 2851
24515, 4239, 4235, 4247, 4243
24516, 4209, 4221, 4217, 4213
24517, 3265, 3207, 3083, 3261
24518, 5560, 5545, 5598, 5724
24519, 581, 14, 34, 580
24520, 2822, 3063, 965, 964
24521, 3061, 961, 962, 2819
24522, 1972, 5378, 1971, 4740
24523, 1993, 1994, 4739, 5316
24524, 525, 2193, 2192, 4947
24525, 2149, 522, 4894, 2148
24526, 3328, 3510, 3513, 3511
24527, 1162, 3596, 3364, 3276
24528, 3062, 2828, 967, 968
24529, 701, 702, 592, 3058
24530, 3847, 1350, 3852, 1349
24531, 3591, 3419, 3636, 3362
24532, 961, 2821, 3066, 960
24533, 4104, 4102, 3803, 1201
24534, 2157, 4909, 2156, 5514
24535, 694, 695, 585, 3067
24536, 4211, 4208, 1518, 1508
24537, 1537, 1546, 4237, 4234
24538, 4388, 4457, 1786, 5739
24539, 2594, 2595, 596, 2596
24540, 2631, 3000, 2685, 2642
24541, 3060, 960, 2823, 959
24542, 4714, 1882, 4508, 4507
24543, 958, 959, 3067, 2825
24544, 2861, 2759, 2746, 2738
24545, 2695, 670, 669, 2697
24546, 587, 696, 697, 3066
24547, 3322, 3623, 3478, 3593
24548, 695, 696, 586, 3060
24549, 28, 3433, 899, 900
24550, 2464, 567, 2606, 2528
24551, 4612, 4610, 4614, 5749
24552, 2992, 2966, 2965, 2688
24553, 3593, 3490, 1149, 3354
24554, 121, 4025, 1382, 5740
24555, 534, 5427, 5428, 5696
24556, 1946, 4635, 4633, 4706
24557, 2707, 888, 712, 722
24558, 3948, 3739, 3866, 1193
24559, 2621, 2497, 593, 2626
24560, 3515, 3390, 3277, 3368
24561, 4027, 1385, 141, 5700
24562, 1278, 3613, 3494, 3349
24563, 3113, 3112, 3252, 3141
24564, 1199, 1200, 3581, 3371
24565, 4843, 4837, 5654, 5649
24566, 5036, 5668, 5663, 5030
24567, 639, 638, 585, 2587
24568, 2180, 4927, 457, 4930
24569, 4524, 4720, 367, 1892
24570, 3545, 3531, 3379, 3425
24571, 1013, 4041, 1012, 3838
24572, 699, 700, 590, 3059
24573, 2703, 3073, 31, 2816
24574, 531, 5425, 5424, 5697
24575, 3612, 3367, 3281, 3548
24576, 4304, 295, 1718, 4356
24577, 4503, 1884, 4505, 4713
24578, 615, 568, 569, 2719
24579, 2137, 2138, 4875, 5506
24580, 5667, 5661, 5666, 5035
24581, 4842, 5653, 5652, 5647
24582, 575, 622, 623, 2545
24583, 4418, 4567, 1794, 4426
24584, 3556, 3317, 3366, 1177
24585, 3426, 3352, 3525, 3331
24586, 47, 2723, 2893, 2722
24587, 4636, 350, 1911, 361
24588, 4798, 2060, 2059, 5575
24589, 2560, 2497, 2462, 2621
24590, 896, 3444, 664, 897
24591, 4182, 1340, 1341, 3844
24592, 3600, 3347, 3411, 3483
24593, 588, 697, 698, 3061
24594, 4603, 4700, 1931, 4647
24595, 2949, 2987, 2983, 2658
24596, 2748, 2889, 2836, 2785
24597, 3016, 25, 679, 2674
24598, 5508, 4796, 2065, 5509
24599, 2600, 2616, 2474, 2459
24600, 3833, 1332, 4032, 3829
24601, 2006, 4948, 390, 2005
24602, 2003, 2004, 389, 4892
24603, 920, 3549, 3283, 919
24604, 1671, 310, 1606, 4487
24605, 1764, 337, 1815, 4573
24606, 336, 1759, 1821, 4570
24607, 309, 1666, 1600, 4484
24608, 53, 847, 1049, 3172
24609, 3842, 3835, 4046, 3839
24610, 4355, 4305, 1688, 5744
24611, 3540, 3346, 3345, 3347
24612, 3069, 963, 2818, 962
24613, 2499, 2592, 2566, 2564
24614, 3768, 3866, 1238, 3958
24615, 1781, 344, 4472, 4424
24616, 3738, 3954, 4016, 3721
24617, 466, 5495, 2199, 4966
24618, 3263, 3088, 713, 997
24619, 702, 703, 593, 3068
24620, 3929, 1367, 1366, 3650
24621, 5399, 4926, 2181, 4925
24622, 3960, 3951, 3954, 3721
24623, 2870, 2739, 2737, 2865
24624, 1580, 4286, 4254, 5715
24625, 4276, 1568, 4228, 5714
24626, 2791, 2788, 2718, 2892
24627, 563, 564, 610, 2718
24628, 2579, 616, 570, 2532
24629, 4599, 4582, 4587, 5718
24630, 3571, 3316, 3358, 3574
24631, 4248, 1453, 4245, 5684
24632, 4222, 4219, 1418, 5683
24633, 4338, 1656, 302, 4335
24634, 4347, 4334, 4337, 5704
24635, 594, 2599, 2462, 2621
24636, 4421, 4432, 4417, 5707
24637, 2882, 2793, 2895, 2890
24638, 2632, 2993, 2687, 2686
24639, 2597, 554, 2483, 2478
24640, 3056, 2831, 955, 956
24641, 2412, 5437, 2411, 5379
24642, 5436, 5317, 2383, 2382
24643, 4041, 1012, 1102, 1013
24644, 1105, 1014, 1015, 4030
24645, 2461, 2592, 2583, 2499
24646, 4177, 4176, 1345, 3849
24647, 3177, 775, 840, 1056
24648, 835, 1061, 780, 3178
24649, 4239, 4246, 4233, 1452
24650, 1419, 4213, 4220, 4207
24651, 2721, 613, 2891, 2836
24652, 4299, 292, 1625, 4330
24653, 2896, 2867, 2914, 2729
24654, 1188, 1271, 3554, 4107
24655, 3584, 3583, 3323, 3398
24656, 2596, 2471, 595, 2485
24657, 5659, 5668, 5663, 5036
24658, 4843, 5654, 5645, 5649
24659, 609, 2835, 2887, 2789
24660, 3084, 3075, 3083, 3265
24661, 987, 988, 1134, 107
24662, 3494, 1280, 1279, 1194
24663, 4503, 4509, 1884, 4713
24664, 741, 740, 606, 2900
24665, 1879, 1878, 4501, 4707
24666, 2896, 2867, 2729, 2727
24667, 677, 904, 905, 3432
24668, 3532, 3637, 3337, 3612
24669, 1958, 4499, 4507, 4504
24670, 1258, 4098, 3807, 1200
24671, 2827, 957, 3057, 958
24672, 4098, 1132, 986, 3808
24673, 5492, 486, 2243, 4832
24674, 417, 5493, 5016, 2098
24675, 4701, 1934, 1933, 4601
24676, 4993, 488, 2244, 5492
24677, 411, 4829, 5493, 2087
24678, 3011, 661, 25, 2636
24679, 3101, 3210, 3110, 3116
24680, 2839, 727, 728, 860
24681, 2972, 2647, 2971, 2945
24682, 621, 573, 620, 2538
24683, 3317, 3558, 3557, 3556
24684, 490, 5663, 5027, 2250
24685, 4834, 2093, 413, 5649
24686, 1689, 4494, 319, 1704
24687, 1783, 1825, 346, 4577
24688, 966, 3058, 965, 2824
24689, 3423, 1163, 3597, 3364
24690, 3269, 3576, 1261, 3619
24691, 4962, 5552, 5586, 2197
24692, 3215, 3263, 3245, 3134
24693, 593, 594, 2462, 2621
24694, 923, 1221, 3435, 1222
24695, 3489, 1170, 1144, 1145
24696, 3208, 3080, 3258, 3136
24697, 705, 706, 596, 3055
24698, 730, 2850, 2848, 2913
24699, 4963, 2203, 2202, 5592
24700, 4964, 2202, 2201, 5598
24701, 2826, 967, 966, 3068
24702, 3397, 3396, 3564, 3300
24703, 274, 248, 247, 5374
24704, 258, 259, 284, 5312
24705, 3531, 3318, 3379, 3425
24706, 3294, 3273, 3632, 3599
24707, 2934, 575, 574, 2629
24708, 2925, 2761, 2736, 2733
24709, 1258, 4098, 1200, 1257
24710, 183, 3774, 1193, 5748
24711, 3490, 1166, 3354, 3279
24712, 4748, 5380, 1970, 1969
24713, 1992, 4747, 1991, 5318
24714, 3676, 176, 1298, 3946
24715, 2489, 2500, 2571, 2570
24716, 4249, 220, 1553, 4285
24717, 294, 4298, 4299, 5702
24718, 4279, 1553, 1589, 4285
24719, 1573, 4269, 4275, 1528
24720, 5461, 5294, 2380, 2379
24721, 2409, 5460, 2408, 5356
24722, 692, 693, 583, 3064
24723, 4546, 4553, 1887, 4618
24724, 2863, 2902, 2751, 2778
24725, 4343, 1685, 4481, 4335
24726, 1843, 1842, 1861, 1852
24727, 113, 869, 1010, 868
24728, 2091, 4838, 2090, 2280
24729, 2247, 5031, 2291, 2248
24730, 568, 614, 615, 2530
24731, 2483, 2540, 554, 2597
24732, 3618, 3347, 3600, 3483
24733, 698, 699, 589, 3069
24734, 5012, 2227, 5013, 5057
24735, 4990, 2215, 4991, 5048
24736, 4826, 5024, 2078, 4827
24737, 5652, 416, 2098, 4842
24738, 5666, 485, 2243, 5035
24739, 4689, 1928, 4604, 1929
24740, 2126, 5500, 5498, 4869
24741, 2489, 2571, 2488, 2569
24742, 1534, 1540, 5407, 4245
24743, 5525, 1783, 4416, 1782
24744, 3300, 3396, 3563, 3398
24745, 2580, 587, 2620, 2534
24746, 569, 2719, 2763, 615
24747, 5629, 4984, 4975, 4989
24748, 4825, 4820, 5615, 4811
24749, 4997, 5011, 5643, 5006
24750, 2781, 2895, 2747, 2726
24751, 2835, 609, 610, 2791
24752, 594, 2599, 2485, 2462
24753, 5208, 5480, 2344, 2345
24754, 5252, 2361, 2360, 5481
24755, 1825, 4458, 354, 1783
24756, 1704, 1689, 322, 4356
24757, 2906, 2873, 2860, 2794
24758, 1349, 1348, 3853, 3846
24759, 1502, 4217, 4209, 5410
24760, 4235, 1533, 5411, 4243
24761, 3321, 3390, 3404, 3518
24762, 2622, 2492, 2565, 2624
24763, 3627, 3345, 3540, 3610
24764, 4496, 1870, 4610, 4616
24765, 2136, 2137, 4877, 5511
24766, 1096, 1121, 139, 1108
24767, 3156, 3155, 3154, 5699
24768, 3338, 3646, 3533, 3385
24769, 2470, 2501, 2605, 2604
24770, 245, 254, 1530, 1536
24771, 245, 243, 1509, 1506
24772, 2501, 2591, 2522, 2605
24773, 1544, 1451, 5187, 1452
24774, 2601, 554, 2540, 2597
24775, 2585, 566, 2519, 2528
24776, 1304, 1305, 4022, 3788
24777, 2614, 15, 597, 2615
24778, 5398, 2405, 5419, 5373
24779, 5311, 5336, 2376, 5418
24780, 1871, 360, 1945, 1870
24781, 3511, 3513, 3328, 3609
24782, 2206, 2207, 4964, 5509
24783, 2893, 2852, 47, 2850
24784, 2595, 2471, 596, 2596
24785, 2728, 2916, 2858, 725
24786, 2518, 2461, 2583, 2499
24787, 2151, 4902, 4907, 5563
24788, 4094, 1456, 1457, 4140
24789, 4061, 1406, 4201, 1407
24790, 2455, 2, 547, 2525
24791, 4141, 1456, 1455, 4090
24792, 1406, 4057, 4202, 1405
24793, 2727, 2726, 2896, 2725
24794, 3817, 104, 3814, 979
24795, 4355, 4307, 1707, 4311
24796, 4390, 1828, 4394, 4457
24797, 3530, 3635, 3306, 3319
24798, 4521, 4617, 1939, 1885
24799, 554, 600, 2701, 2702
24800, 544, 547, 2515, 2525
24801, 1353, 1354, 3853, 3861
24802, 2525, 2515, 544, 2507
24803, 3215, 721, 722, 3106
24804, 4144, 4141, 1455, 4090
24805, 4204, 4202, 4057, 1405
24806, 5598, 5545, 5567, 5724
24807, 3022, 3026, 677, 3432
24808, 3775, 1273, 1191, 3999
24809, 3618, 3347, 3540, 3600
24810, 2736, 2737, 2738, 2866
24811, 561, 608, 607, 2758
24812, 2499, 2520, 2592, 2465
24813, 1841, 1862, 1863, 4583
24814, 2747, 2896, 2889, 2729
24815, 3372, 3632, 3506, 3539
24816, 1449, 1540, 223, 5405
24817, 5404, 210, 1422, 1516
24818, 1119, 46, 3199, 2920
24819, 4598, 1937, 4707, 4593
24820, 2725, 2726, 2896, 2864
24821, 4663, 4667, 4690, 5754
24822, 2552, 2521, 2472, 2551
24823, 2736, 2885, 2866, 2925
24824, 2132, 4879, 5564, 2131
24825, 2109, 4860, 426, 4856
24826, 2188, 4959, 463, 4933
24827, 3610, 3627, 3384, 3592
24828, 4384, 1740, 1733, 4405
24829, 5601, 2171, 4921, 2170
24830, 3278, 3622, 3363, 3477
24831, 564, 565, 611, 2768
24832, 4503, 372, 4501, 5746
24833, 5591, 5652, 2444, 2443
24834, 5666, 5590, 2449, 2450
24835, 685, 669, 2697, 2699
24836, 720, 2931, 2933, 886
24837, 3864, 4182, 1361, 3859
24838, 4025, 4020, 1376, 4172
24839, 2627, 2580, 586, 2469
24840, 580, 581, 14, 2613
24841, 3214, 3130, 3260, 3259
24842, 2864, 2781, 2726, 2895
24843, 545, 598, 2614, 2507
24844, 4578, 4577, 4608, 1922
24845, 4866, 2116, 2115, 5600
24846, 676, 903, 904, 3435
24847, 3815, 4099, 1324, 1253
24848, 2993, 2632, 2943, 2686
24849, 2770, 2788, 2791, 2892
24850, 968, 2830, 969, 3065
24851, 3360, 3586, 3358, 3575
24852, 4005, 3653, 1268, 1183
24853, 801, 800, 36, 955
24854, 2531, 562, 561, 2501
24855, 1570, 1571, 4268, 4224
24856, 4278, 1570, 4250, 1571
24857, 1082, 1086, 56, 133
24858, 1044, 1090, 52, 125
24859, 2880, 2863, 2744, 2883
24860, 2922, 2770, 2791, 2892
24861, 1996, 1997, 4732, 5284
24862, 1975, 5346, 1974, 4731
24863, 568, 567, 614, 2606
24864, 3533, 3590, 3635, 3319
24865, 2853, 2735, 2779, 2854
24866, 4116, 1207, 1278, 3422
24867, 2794, 2860, 2759, 2783
24868, 4433, 1795, 340, 4401
24869, 4349, 4318, 311, 1675
24870, 2863, 2861, 2778, 2746
24871, 2930, 721, 2709, 722
24872, 2884, 2911, 2743, 2905
24873, 4458, 325, 5527, 4387
24874, 2888, 2765, 614, 2719
24875, 985, 3117, 3087, 3253
24876, 1761, 1762, 1818, 4575
24877, 1668, 1669, 1603, 4489
24878, 3283, 3360, 3343, 3614
24879, 4596, 360, 4709, 1871
24880, 2712, 721, 2931, 720
24881, 3774, 3866, 1193, 5748
24882, 3597, 3478, 3423, 3342
24883, 1463, 1454, 4091, 4143
24884, 1404, 4058, 4203, 1402
24885, 4997, 5011, 2269, 5643
24886, 5615, 2238, 4825, 4811
24887, 4989, 4975, 5629, 2260
24888, 3360, 3614, 3544, 3343
24889, 2490, 2489, 2467, 2569
24890, 2490, 2489, 2569, 2570
24891, 3347, 3540, 3346, 3618
24892, 971, 101, 3052, 974
24893, 5671, 2289, 5038, 5026
24894, 5657, 2278, 4845, 4833
24895, 561, 607, 560, 2758
24896, 2671, 2966, 2688, 2687
24897, 1160, 3574, 1155, 1154
24898, 195, 1330, 5716, 5760
24899, 4908, 2157, 2158, 5513
24900, 119, 150, 3202, 1112
24901, 4226, 4268, 4229, 4274
24902, 4252, 4284, 4255, 4278
24903, 3574, 1155, 3316, 1160
24904, 3549, 3614, 3488, 3402
24905, 2725, 2723, 2724, 2864
24906, 2635, 2995, 2994, 2949
24907, 2928, 2734, 2885, 2870
24908, 3791, 190, 1306, 4024
24909, 3132, 3077, 3240, 3135
24910, 2108, 4857, 425, 4968
24911, 2187, 4934, 462, 4936
24912, 2483, 2471, 2510, 2595
24913, 2617, 2512, 2485, 2508
24914, 2547, 2477, 2550, 2476
24915, 616, 615, 569, 2763
24916, 2549, 2547, 2550, 2476
24917, 969, 815, 816, 2832
24918, 3075, 3106, 3241, 3239
24919, 3681, 3694, 3680, 1021
24920, 649, 656, 655, 2665
24921, 2073, 397, 5560, 5545
24922, 4283, 4256, 4249, 4251
24923, 4223, 4273, 4225, 4230
24924, 4802, 399, 5494, 2068
24925, 3306, 3297, 3320, 3528
24926, 5347, 458, 5370, 5745
24927, 1954, 4682, 4639, 1955
24928, 2789, 2835, 2745, 2791
24929, 2213, 5630, 4979, 4987
24930, 4815, 2076, 5616, 4823
24931, 5644, 2225, 5009, 5001
24932, 2757, 2786, 2717, 2875
24933, 3008, 918, 83, 3307
24934, 4027, 4048, 1385, 5700
24935, 2724, 2723, 2722, 2864
24936, 1511, 1530, 245, 1506
24937, 2506, 626, 2524, 2516
24938, 2906, 2760, 2761, 2907
24939, 3771, 3947, 3962, 3946
24940, 1105, 42, 1015, 3148
24941, 2767, 566, 612, 2721
24942, 1512, 4218, 4206, 4212
24943, 4232, 1512, 4238, 4244
24944, 2937, 891, 3439, 890
24945, 2606, 2503, 2464, 2581
24946, 4627, 4648, 1949, 1948
24947, 4208, 1518, 1508, 1517
24948, 1546, 1537, 1547, 4234
24949, 5014, 5633, 5637, 5639
24950, 5605, 4828, 5611, 5609
24951, 5623, 5625, 4992, 5619
24952, 2564, 2499, 2591, 2522
24953, 199, 3849, 1350, 3856
24954, 4813, 2084, 4819, 5608
24955, 2221, 4983, 4977, 5622
24956, 4999, 2233, 5005, 5636
24957, 1522, 4224, 4228, 5714
24958, 4250, 1552, 4254, 5715
24959, 1457, 1458, 4093, 4139
24960, 4200, 1407, 1408, 4060
24961, 2515, 545, 544, 2507
24962, 372, 4718, 365, 5757
24963, 3204, 3251, 3118, 986
24964, 2694, 599, 600, 2702
24965, 4120, 3640, 167, 1469
24966, 655, 649, 2665, 2998
24967, 1189, 3300, 3492, 3398
24968, 561, 562, 608, 2720
24969, 1213, 3507, 4125, 1266
24970, 626, 2506, 625, 2516
24971, 4239, 4235, 4236, 4247
24972, 4209, 4210, 4221, 4213
24973, 1355, 3863, 200, 3856
24974, 676, 677, 2939, 2669
24975, 5185, 1572, 4275, 1573
24976, 5184, 1590, 1589, 4285
24977, 3146, 3211, 3238, 3132
24978, 2691, 643, 672, 905
24979, 554, 555, 601, 2540
24980, 2343, 2193, 525, 5178
24981, 2319, 5133, 522, 2148
24982, 2139, 5504, 4878, 2138
24983, 913, 3587, 3014, 3021
24984, 997, 3263, 3088, 3245
24985, 868, 1009, 1008, 111
24986, 3596, 3597, 3364, 3534
24987, 3565, 3406, 3340, 3395
24988, 4096, 1320, 3802, 1321
24989, 3595, 3544, 3614, 3283
24990, 1028, 3202, 119, 4006
24991, 3202, 119, 3165, 1028
24992, 2561, 2625, 2495, 2626
24993, 5617, 4978, 4986, 5626
24994, 4822, 5612, 5603, 4814
24995, 5640, 5631, 5008, 5000
24996, 2597, 2601, 554, 2478
24997, 4617, 1939, 1885, 1940
24998, 1859, 1860, 1844, 4590
24999, 4178, 1360, 3863, 4177
25000, 3831, 1123, 4031, 976
25001, 268, 4336, 4341, 5712
25002, 4425, 4419, 282, 5713
25003, 2747, 2889, 2895, 2890
25004, 4207, 4213, 4216, 4211
25005, 4237, 4233, 4239, 4242
25006, 2600, 2554, 2527, 2459
25007, 3432, 3022, 924, 3438
25008, 1105, 42, 4049, 1015
25009, 5517, 2067, 4799, 2068
25010, 2513, 2611, 2575, 2514
25011, 3087, 3116, 3237, 3117
25012, 2501, 561, 2531, 2604
25013, 3739, 3774, 3768, 3866
25014, 2749, 2775, 2841, 2890
25015, 1451, 1544, 4241, 1452
25016, 614, 615, 2888, 2719
25017, 1931, 1930, 4700, 4603
25018, 2375, 281, 533, 5258
25019, 277, 532, 5214, 2359
25020, 1337, 3850, 196, 5750
25021, 1382, 4025, 121, 4174
25022, 1358, 4183, 117, 3864
25023, 2567, 2566, 2490, 2568
25024, 4742, 1988, 1989, 5280
25025, 1966, 1967, 5342, 4741
25026, 4647, 1931, 4603, 1932
25027, 2749, 2889, 2888, 2748
25028, 4619, 4636, 1873, 4511
25029, 2512, 2471, 2597, 2617
25030, 1764, 337, 4396, 1815
25031, 309, 1666, 4314, 1600
25032, 1671, 310, 4313, 1606
25033, 336, 1759, 4397, 1821
25034, 2741, 2733, 2761, 2921
25035, 4430, 4424, 4414, 5733
25036, 5195, 2349, 5472, 2348
25037, 2364, 5239, 2365, 5473
25038, 1885, 4554, 4521, 1940
25039, 2411, 5443, 2410, 5357
25040, 5442, 2381, 5295, 2382
25041, 2546, 2460, 2547, 2548
25042, 1825, 4519, 1826, 5743
25043, 3624, 3276, 3405, 3369
25044, 933, 3454, 3442, 944
25045, 2842, 2891, 2742, 2767
25046, 2468, 2625, 2563, 2624
25047, 4099, 1324, 3819, 3815
25048, 594, 593, 2541, 2621
25049, 1439, 5184, 4277, 1590
25050, 5185, 1431, 4267, 1572
25051, 2776, 2840, 2894, 2887
25052, 2778, 2861, 2859, 2746
25053, 4259, 4352, 271, 4303
25054, 4290, 4386, 287, 4454
25055, 2518, 2566, 2583, 2568
25056, 2037, 5181, 390, 2006
25057, 2016, 2003, 389, 5134
25058, 2771, 2888, 2836, 2748
25059, 110, 1019, 3851, 112
25060, 2715, 2886, 2895, 2762
25061, 1887, 1938, 1939, 4618
25062, 3826, 3812, 3822, 1328
25063, 2770, 2737, 2928, 2870
25064, 2995, 2660, 2659, 2635
25065, 1222, 3026, 924, 3432
25066, 1639, 4351, 1653, 1640
25067, 1738, 1735, 1736, 4453
25068, 2723, 2753, 47, 2852
25069, 2200, 2201, 5582, 4965
25070, 1214, 3340, 1213, 3625
25071, 3802, 4104, 1321, 3803
25072, 2922, 2928, 2770, 2892
25073, 2384, 5430, 5296, 2383
25074, 2412, 2413, 5431, 5358
25075, 3360, 3358, 3344, 3575
25076, 4641, 4681, 1952, 1951
25077, 2737, 2770, 2739, 2870
25078, 740, 2898, 606, 2900
25079, 5090, 2288, 5071, 2300
25080, 2268, 5084, 2296, 5050
25081, 5017, 2283, 5069, 2237
25082, 5087, 5059, 2298, 2277
25083, 2294, 5081, 5041, 2259
25084, 2862, 2871, 2906, 2761
25085, 2580, 587, 586, 2469
25086, 2500, 2469, 2488, 2573
25087, 2829, 3064, 957, 956
25088, 1811, 4414, 343, 4471
25089, 1126, 155, 3814, 3266
25090, 3433, 917, 3023, 3015
25091, 4836, 410, 2445, 2099
25092, 2451, 5029, 487, 2255
25093, 3360, 3291, 3586, 3402
25094, 3348, 3541, 3645, 3618
25095, 3044, 3444, 3033, 3041
25096, 2770, 2745, 2884, 2922
25097, 5672, 2290, 5026, 5037
25098, 4833, 5658, 2279, 4844
25099, 2987, 2657, 2996, 2969
25100, 4457, 4393, 4392, 4385
25101, 4310, 4309, 4302, 4355
25102, 4267, 4275, 1416, 5185
25103, 727, 726, 3161, 3196
25104, 4292, 282, 4425, 1595
25105, 4341, 1561, 268, 4261
25106, 2579, 2479, 2577, 2532
25107, 2861, 2862, 2738, 2865
25108, 4580, 1880, 4510, 4598
25109, 2501, 2531, 2591, 2605
25110, 5006, 2440, 5643, 2232
25111, 5615, 2083, 4820, 2446
25112, 4984, 2220, 2452, 5629
25113, 2621, 2560, 2497, 2626
25114, 3612, 3487, 3367, 3548
25115, 4256, 4249, 4279, 4283
25116, 4223, 4269, 4273, 4230
25117, 2720, 609, 608, 2789
25118, 735, 871, 2899, 2908
25119, 3073, 31, 688, 2703
25120, 1312, 191, 3791, 3798
25121, 4622, 4651, 1954, 1953
25122, 2865, 2738, 2737, 2866
25123, 3823, 104, 1328, 3825
25124, 3195, 3161, 726, 3196
25125, 3935, 4013, 3716, 3763
25126, 2359, 2435, 5214, 5426
25127, 2375, 2437, 5429, 5258
25128, 2705, 38, 709, 3071
25129, 1012, 3841, 4029, 3832
25130, 1968, 5343, 4751, 1969
25131, 4752, 1990, 1991, 5281
25132, 3342, 3423, 3597, 3364
25133, 3813, 1325, 3814, 1329
25134, 5184, 1589, 1553, 4285
25135, 4275, 5185, 1573, 1528
25136, 4133, 4137, 4132, 5684
25137, 2902, 2857, 2912, 723
25138, 1512, 4218, 4214, 4206
25139, 1512, 4232, 4240, 4244
25140, 2672, 2971, 2986, 2972
25141, 2554, 606, 559, 2533
25142, 2500, 2571, 2488, 2489
25143, 5306, 5456, 2386, 2387
25144, 2416, 2415, 5368, 5457
25145, 4111, 1189, 3398, 1190
25146, 705, 595, 704, 3065
25147, 3313, 3642, 3497, 3396
25148, 3440, 1232, 3461, 5725
25149, 4405, 4467, 4384, 4406
25150, 593, 2541, 2621, 2586
25151, 690, 689, 31, 2833
25152, 5398, 2404, 5347, 5723
25153, 2403, 5336, 5285, 5722
25154, 553, 600, 599, 2601
25155, 4836, 2087, 5646, 410
25156, 5029, 2244, 5660, 487
25157, 3676, 1181, 176, 3946
25158, 3196, 727, 859, 860
25159, 3937, 4005, 4013, 3763
25160, 1844, 1843, 1860, 1851
25161, 5499, 2208, 4963, 4966
25162, 2610, 624, 576, 2712
25163, 2980, 2643, 652, 2999
25164, 3245, 3263, 3088, 3134
25165, 592, 593, 2626, 2586
25166, 728, 2717, 2839, 2923
25167, 4800, 2059, 2058, 5554
25168, 1854, 314, 313, 1863
25169, 386, 4928, 4756, 2011
25170, 2766, 609, 2720, 2789
25171, 2929, 2928, 2842, 2742
25172, 2695, 604, 557, 2609
25173, 3592, 3361, 3419, 3591
25174, 2883, 2863, 2772, 2905
25175, 5427, 534, 5435, 5696
25176, 3022, 891, 2938, 3438
25177, 4686, 1949, 1950, 4645
25178, 275, 1571, 1505, 4231
25179, 1529, 275, 4257, 1571
25180, 700, 701, 591, 3063
25181, 4510, 1881, 4595, 5757
25182, 242, 253, 246, 1512
25183, 2719, 2763, 615, 2841
25184, 3134, 3245, 3215, 3256
25185, 3168, 121, 1031, 1382
25186, 3625, 1213, 1214, 1266
25187, 2528, 2606, 2464, 2581
25188, 4031, 4045, 1123, 3831
25189, 728, 727, 3196, 860
25190, 5424, 5434, 531, 5697
25191, 4319, 4365, 4322, 4320
25192, 4293, 4292, 4425, 1595
25193, 4341, 1561, 4261, 4262
25194, 2882, 2881, 2886, 732
25195, 2582, 2463, 584, 2486
25196, 1675, 312, 1864, 1715
25197, 2873, 2906, 2760, 2794
25198, 691, 692, 582, 3056
25199, 3718, 3768, 3866, 1238
25200, 2459, 2554, 559, 2473
25201, 567, 2606, 2503, 2464
25202, 1009, 868, 1008, 112
25203, 3475, 3283, 3549, 919
25204, 1214, 1267, 3625, 1266
25205, 2471, 2483, 2597, 2595
25206, 2795, 2842, 2742, 2767
25207, 3614, 3544, 3543, 3360
25208, 2775, 2719, 2888, 2841
25209, 4511, 4619, 4637, 1874
25210, 2739, 2738, 2737, 2865
25211, 1899, 1898, 1907, 1918
25212, 1842, 1841, 1862, 1853
25213, 3739, 3948, 183, 1193
25214, 2113, 429, 5498, 4869
25215, 2895, 2896, 2747, 2726
25216, 116, 1357, 3152, 1021
25217, 2917, 2839, 859, 727
25218, 3454, 3442, 3040, 933
25219, 2966, 2992, 2671, 2688
25220, 3361, 3419, 3591, 3362
25221, 2532, 570, 2479, 2475
25222, 2626, 2535, 592, 2586
25223, 997, 3088, 40, 996
25224, 5567, 4794, 2070, 4804
25225, 2471, 595, 596, 2596
25226, 2731, 2872, 2741, 2855
25227, 2547, 2475, 2460, 2546
25228, 2871, 2761, 2736, 2925
25229, 1605, 1606, 1613, 1671
25230, 1816, 1815, 1801, 1764
25231, 1821, 1820, 1807, 1759
25232, 1600, 1601, 1619, 1666
25233, 4277, 4285, 1438, 4280
25234, 4275, 1416, 4270, 4267
25235, 2725, 2896, 2727, 2854
25236, 3237, 3087, 3117, 3253
25237, 3106, 3241, 721, 3075
25238, 1020, 1358, 117, 5750
25239, 1856, 1855, 4594, 1707
25240, 179, 1270, 4109, 3493
25241, 3519, 3518, 3321, 3527
25242, 2672, 2671, 2647, 2972
25243, 5059, 2088, 5648, 2298
25244, 2223, 5050, 2296, 5634
25245, 5662, 2300, 5071, 2245
25246, 2294, 5620, 2211, 5041
25247, 5606, 2283, 5017, 2074
25248, 728, 861, 2919, 860
25249, 2532, 617, 571, 2546
25250, 2748, 2836, 2773, 2785
25251, 570, 569, 2579, 2479
25252, 3640, 4120, 1264, 1469
25253, 2890, 2882, 2793, 2787
25254, 259, 258, 226, 5312
25255, 209, 247, 248, 5374
25256, 2482, 2472, 2521, 2551
25257, 3783, 1269, 179, 1467
25258, 2790, 2728, 2858, 725
25259, 2269, 2230, 4997, 5055
25260, 5046, 4975, 2218, 2260
25261, 2238, 5022, 2081, 4811
25262, 2895, 2896, 2889, 2747
25263, 4125, 3482, 1265, 1266
25264, 1899, 1918, 1907, 1919
25265, 1854, 1841, 1853, 1862
25266, 3358, 3427, 3316, 3571
25267, 4591, 1927, 4685, 1926
25268, 565, 611, 612, 2585
25269, 3653, 4005, 3873, 1183
25270, 35, 13, 49, 2834
25271, 4, 16, 17, 2833
25272, 4098, 3807, 1200, 3808
25273, 3356, 3590, 3275, 3385
25274, 1397, 205, 4073, 4057
25275, 1432, 218, 4090, 4085
25276, 760, 1036, 51, 855
25277, 1074, 826, 55, 789
25278, 728, 3196, 3194, 860
25279, 1722, 1720, 4455, 1723
25280, 1627, 1626, 1642, 4353
25281, 3571, 3585, 3370, 3570
25282, 2910, 729, 861, 2918
25283, 5651, 4838, 2280, 5658
25284, 5672, 2291, 5031, 5665
25285, 4428, 286, 4294, 1595
25286, 4344, 269, 1561, 4263
25287, 3160, 3196, 3193, 3197
25288, 85, 82, 3006, 1249
25289, 3134, 3215, 722, 3106
25290, 2405, 5419, 529, 5398
25291, 2376, 5336, 528, 5418
25292, 2942, 669, 668, 2642
25293, 567, 566, 613, 2528
25294, 2919, 728, 2839, 2923
25295, 923, 1221, 1222, 3570
25296, 2184, 4931, 459, 5471
25297, 2105, 5470, 422, 4854
25298, 4031, 1123, 1124, 976
25299, 2549, 2548, 2547, 2476
25300, 1861, 1843, 1860, 4585
25301, 2863, 2740, 2772, 2905
25302, 3193, 3161, 3196, 3160
25303, 2567, 2492, 2622, 2623
25304, 3343, 3614, 3544, 3283
25305, 3369, 3344, 3535, 3310
25306, 1120, 118, 151, 3203
25307, 2162, 4911, 447, 5558
25308, 2355, 2354, 5448, 5198
25309, 5242, 2371, 2370, 5449
25310, 4745, 5344, 1971, 1970
25311, 1993, 4746, 1992, 5282
25312, 2590, 591, 590, 2624
25313, 3101, 3237, 3210, 3116
25314, 2572, 2571, 2500, 2570
25315, 2743, 2911, 2883, 2905
25316, 3645, 3601, 3373, 3483
25317, 594, 703, 704, 3062
25318, 2273, 5635, 504, 5010
25319, 4988, 2264, 498, 5621
25320, 4824, 484, 5607, 2242
25321, 2743, 2740, 2739, 2905
25322, 1367, 3720, 1283, 3650
25323, 595, 2594, 2596, 2598
25324, 5661, 5031, 5032, 5028
25325, 4839, 4838, 4835, 5647
25326, 4218, 1512, 1511, 4212
25327, 4244, 1512, 4238, 1511
25328, 4250, 4255, 1570, 4278
25329, 4224, 4268, 1570, 4229
25330, 2514, 2480, 2611, 2574
25331, 1227, 1226, 1244, 926
25332, 4608, 4611, 4615, 5743
25333, 4736, 5345, 1973, 1972
25334, 1995, 4735, 1994, 5283
25335, 2099, 539, 2445, 5650
25336, 2255, 5664, 541, 2451
25337, 3251, 3236, 3204, 3118
25338, 1580, 4251, 1551, 4254
25339, 4228, 1568, 4225, 1523
25340, 3016, 25, 2674, 2636
25341, 4041, 1102, 1012, 4029
25342, 3438, 924, 3432, 1223
25343, 3430, 3560, 3494, 3621
25344, 2093, 510, 413, 5649
25345, 5663, 490, 517, 2250
25346, 3489, 3627, 3280, 3600
25347, 3954, 3960, 3721, 3905
25348, 2537, 2590, 590, 2624
25349, 2459, 2600, 2554, 2555
25350, 220, 4285, 4277, 5184
25351, 2623, 2567, 2492, 2467
25352, 3283, 3402, 3549, 920
25353, 4222, 4215, 1421, 5683
25354, 1450, 4241, 4248, 5684
25355, 3365, 3559, 1159, 3316
25356, 3323, 1191, 3424, 4114
25357, 2858, 2728, 2790, 2752
25358, 4593, 1937, 4656, 1936
25359, 2735, 2753, 2723, 2852
25360, 3528, 3297, 3320, 3519
25361, 2887, 608, 609, 2789
25362, 2993, 2687, 2978, 2632
25363, 2533, 560, 2473, 2470
25364, 2372, 5445, 2371, 5250
25365, 5206, 2356, 5444, 2355
25366, 1924, 4634, 4620, 5705
25367, 2771, 2749, 2775, 2888
25368, 2465, 2531, 2593, 2591
25369, 3814, 3266, 155, 3817
25370, 47, 2753, 730, 2850
25371, 2751, 2777, 2863, 2778
25372, 556, 602, 555, 2603
25373, 3811, 3286, 165, 3573
25374, 924, 1222, 3432, 1223
25375, 3262, 994, 999, 1000
25376, 2865, 2884, 2739, 2905
25377, 1480, 234, 1482, 5696
25378, 1494, 237, 1498, 5697
25379, 1271, 3492, 180, 4111
25380, 712, 888, 2930, 722
25381, 4975, 4979, 5630, 4987
25382, 4811, 4815, 5616, 4823
25383, 5644, 5009, 4997, 5001
25384, 2834, 13, 49, 710
25385, 4, 17, 546, 2833
25386, 2362, 5479, 2361, 5243
25387, 5478, 5199, 2346, 2345
25388, 1749, 4457, 4392, 1725
25389, 4355, 4309, 1629, 1655
25390, 2887, 2835, 2745, 2789
25391, 2326, 2325, 5464, 5148
25392, 2304, 5465, 5102, 2305
25393, 4323, 4322, 4301, 1651
25394, 4302, 1644, 4309, 4310
25395, 1747, 4392, 4393, 4385
25396, 2463, 2588, 2582, 2539
25397, 343, 4414, 4450, 1780
25398, 4208, 4212, 4218, 1517
25399, 4238, 1547, 4234, 4244
25400, 1882, 4714, 1888, 4499
25401, 2088, 2089, 5059, 5648
25402, 5071, 5662, 2245, 2246
25403, 548, 5, 652, 2999
25404, 3263, 713, 39, 997
25405, 1810, 4445, 4447, 1824
25406, 4617, 4521, 4554, 1940
25407, 4855, 4849, 2102, 4848
25408, 3215, 3241, 721, 3106
25409, 2719, 615, 2888, 2841
25410, 1689, 4332, 1690, 5524
25411, 3373, 3645, 3348, 3429
25412, 1875, 4710, 362, 1874
25413, 3023, 3436, 1218, 3433
25414, 1518, 4208, 4218, 1517
25415, 4234, 1547, 1546, 4244
25416, 2477, 2577, 2479, 2475
25417, 283, 4448, 1594, 4412
25418, 1565, 272, 4328, 4380
25419, 28, 3012, 899, 3015
25420, 4120, 1265, 3481, 1264
25421, 3040, 934, 3454, 933
25422, 2858, 2728, 2752, 2783
25423, 2820, 3059, 964, 963
25424, 1411, 153, 141, 4056
25425, 147, 96, 4089, 1461
25426, 3049, 681, 18, 3045
25427, 613, 612, 566, 2721
25428, 2939, 676, 2986, 904
25429, 2522, 2465, 2591, 2501
25430, 2864, 2781, 2895, 2762
25431, 2770, 2737, 2769, 2928
25432, 1939, 4546, 1887, 4618
25433, 3112, 719, 718, 3234
25434, 510, 2093, 2282, 5649
25435, 2250, 517, 5663, 2293
25436, 4102, 4104, 1259, 1201
25437, 3653, 3763, 4005, 3741
25438, 3574, 3316, 3357, 1160
25439, 4992, 5625, 4982, 5624
25440, 4828, 5611, 4818, 5610
25441, 5004, 5638, 5014, 5639
25442, 1946, 4633, 1947, 4657
25443, 1239, 3779, 3718, 1249
25444, 2887, 2750, 2776, 2789
25445, 3633, 1217, 3616, 3007
25446, 3106, 3256, 3215, 3239
25447, 1842, 1852, 1853, 1861
25448, 2891, 2842, 612, 2767
25449, 3358, 3427, 3586, 3360
25450, 2666, 2690, 2638, 2975
25451, 3802, 1320, 4096, 4104
25452, 4491, 4342, 317, 1868
25453, 2611, 2575, 2514, 2574
25454, 539, 2099, 4846, 5650
25455, 2255, 541, 5664, 5039
25456, 2914, 2798, 2774, 2785
25457, 2465, 2531, 2591, 2501
25458, 4595, 1866, 4592, 5757
25459, 2566, 2518, 2490, 2568
25460, 3756, 3767, 1234, 3713
25461, 3590, 3356, 3319, 3385
25462, 4870, 5523, 431, 2121
25463, 4570, 4444, 4437, 1807
25464, 4443, 4440, 4573, 1801
25465, 350, 4636, 4497, 361
25466, 2761, 2871, 2906, 2907
25467, 3240, 3211, 3262, 3077
25468, 3134, 3256, 3106, 3107
25469, 2576, 582, 642, 2543
25470, 1693, 4343, 318, 1847
25471, 1921, 348, 4426, 1770
25472, 1778, 1920, 347, 4427
25473, 4342, 1701, 317, 1868
25474, 3347, 3411, 3280, 3600
25475, 2475, 2532, 571, 2546
25476, 2668, 2978, 2687, 2632
25477, 2592, 2499, 2465, 2591
25478, 2493, 2518, 2566, 2499
25479, 3865, 1181, 1180, 1262
25480, 568, 2606, 2530, 2503
25481, 4836, 2087, 5654, 5646
25482, 5029, 2244, 5668, 5660
25483, 2717, 2875, 2915, 2923
25484, 5089, 5072, 2285, 5074
25485, 5062, 2274, 5060, 5086
25486, 2256, 5044, 5080, 5042
25487, 5051, 2265, 5083, 5053
25488, 5068, 5018, 2234, 5020
25489, 2131, 4881, 5573, 2130
25490, 26, 3045, 681, 936
25491, 3621, 3494, 3268, 3587
25492, 2543, 581, 21, 2613
25493, 2010, 4932, 385, 4734
25494, 1999, 4733, 383, 4855
25495, 4910, 2150, 443, 5570
25496, 1215, 4119, 1216, 1181
25497, 1767, 4567, 340, 4418
25498, 4655, 1928, 1927, 4584
25499, 3636, 3592, 3329, 3419
25500, 3194, 3196, 3160, 3197
25501, 1508, 1518, 4211, 1507
25502, 1538, 1537, 1546, 4237
25503, 4521, 4617, 1885, 1940
25504, 1451, 4154, 225, 1452
25505, 1420, 1419, 214, 4165
25506, 2116, 4867, 2117, 5599
25507, 1716, 4365, 4366, 5747
25508, 1593, 4289, 4287, 5713
25509, 4266, 1562, 4264, 5712
25510, 722, 888, 3215, 3263
25511, 2484, 2553, 2551, 2538
25512, 672, 677, 905, 27
25513, 1476, 4153, 1477, 4130
25514, 4372, 4378, 1619, 4484
25515, 861, 728, 3194, 860
25516, 2934, 574, 621, 2629
25517, 2735, 2853, 2852, 2854
25518, 4374, 4375, 1613, 4487
25519, 4595, 1881, 4510, 4580
25520, 4109, 1270, 1186, 3555
25521, 4564, 347, 1920, 4427
25522, 1169, 3411, 1168, 1146
25523, 2760, 2728, 2873, 2794
25524, 2583, 2461, 2518, 2491
25525, 4171, 3795, 1316, 1315
25526, 5650, 5654, 4841, 5648
25527, 5662, 5664, 5034, 5668
25528, 2792, 2757, 2918, 2851
25529, 3325, 3328, 3513, 3327
25530, 5006, 5643, 5638, 2232
25531, 5615, 4820, 2083, 5610
25532, 2220, 4984, 5624, 5629
25533, 3193, 3161, 3195, 3196
25534, 3545, 3612, 3532, 3425
25535, 478, 501, 5011, 2231
25536, 2082, 481, 405, 4825
25537, 2219, 495, 472, 4989
25538, 3118, 987, 3204, 986
25539, 1656, 4481, 302, 4335
25540, 2513, 2480, 2611, 2514
25541, 4849, 2102, 4853, 4855
25542, 2737, 2734, 2769, 2928
25543, 1451, 225, 5187, 1452
25544, 214, 1419, 1420, 5186
25545, 612, 565, 566, 2767
25546, 1024, 3203, 118, 3163
25547, 890, 891, 3439, 3438
25548, 614, 613, 567, 2765
25549, 1609, 1610, 4373, 4383
25550, 1622, 4368, 4381, 1597
25551, 3865, 159, 3776, 1180
25552, 3278, 3363, 3362, 3477
25553, 801, 2831, 802, 956
25554, 2605, 2562, 2522, 2511
25555, 5037, 515, 491, 2247
25556, 414, 508, 2090, 4844
25557, 4102, 3803, 1201, 3807
25558, 1625, 292, 4382, 4330
25559, 2479, 2579, 570, 2532
25560, 588, 2571, 2488, 2580
25561, 2739, 2745, 2743, 2884
25562, 2488, 2571, 2500, 2573
25563, 2773, 2771, 2765, 2836
25564, 3211, 3146, 3077, 3132
25565, 1761, 1762, 4398, 1818
25566, 1668, 1669, 4315, 1603
25567, 2513, 2575, 2487, 2514
25568, 406, 400, 4830, 5571
25569, 5572, 447, 473, 4994
25570, 5066, 2282, 4843, 5645
25571, 2293, 5078, 5659, 5036
25572, 3795, 1311, 1310, 3788
25573, 5572, 408, 396, 4831
25574, 2672, 2986, 2988, 2972
25575, 2854, 2725, 2896, 2864
25576, 2919, 2839, 728, 860
25577, 4247, 4236, 4239, 4242
25578, 4210, 4216, 4221, 4213
25579, 2694, 553, 599, 2693
25580, 5653, 5651, 417, 5645
25581, 5665, 486, 5667, 5659
25582, 2896, 2914, 2889, 2729
25583, 2860, 2859, 2861, 2746
25584, 3318, 3531, 3532, 3425
25585, 4986, 5625, 5617, 5626
25586, 5612, 4822, 5603, 5611
25587, 5631, 5008, 5639, 5640
25588, 1186, 1270, 4107, 3555
25589, 5558, 4924, 455, 2167
25590, 2609, 545, 2614, 2507
25591, 3134, 3088, 3245, 3125
25592, 4457, 4393, 4385, 5739
25593, 1888, 1883, 4499, 4715
25594, 2577, 2477, 2550, 2547
25595, 3215, 3241, 3106, 3239
25596, 2569, 2489, 2571, 2570
25597, 2466, 2579, 569, 2479
25598, 2849, 730, 2792, 2850
25599, 614, 567, 568, 2765
25600, 559, 560, 2473, 2533
25601, 2290, 2289, 5661, 5026
25602, 5647, 2279, 2278, 4833
25603, 1961, 4718, 372, 5757
25604, 4446, 1812, 1798, 4449
25605, 2605, 2501, 2531, 2604
25606, 4984, 5629, 2219, 4989
25607, 5615, 2082, 4820, 4825
25608, 5643, 5011, 2231, 5006
25609, 4616, 4496, 1870, 1869
25610, 5251, 2364, 2363, 5475
25611, 2348, 5474, 5207, 2347
25612, 2790, 2909, 45, 725
25613, 1998, 4733, 4851, 5337
25614, 3812, 3826, 3813, 1328
25615, 2520, 2592, 2461, 2499
25616, 1201, 1258, 4102, 3807
25617, 2501, 2470, 561, 2604
25618, 2859, 2860, 2783, 2746
25619, 5648, 2089, 5059, 2299
25620, 5071, 2301, 5662, 2246
25621, 2587, 585, 639, 2539
25622, 2902, 2857, 43, 2859
25623, 5634, 2223, 2224, 4995
25624, 2211, 5620, 4973, 2212
25625, 2075, 5606, 2074, 4809
25626, 571, 570, 2532, 2475
25627, 1562, 4261, 4260, 5712
25628, 4292, 1593, 4291, 5713
25629, 1962, 4725, 373, 5756
25630, 1587, 276, 1555, 4284
25631, 276, 4274, 1575, 1526
25632, 3291, 3586, 3427, 3360
25633, 5440, 2428, 2429, 5349
25634, 2399, 5287, 5441, 2400
25635, 1768, 4448, 283, 4412
25636, 1703, 4328, 272, 4380
25637, 5495, 466, 2208, 4966
25638, 1889, 1884, 4509, 4713
25639, 3370, 3585, 3427, 3291
25640, 2890, 2775, 2904, 2787
25641, 4851, 381, 1998, 5337
25642, 985, 4100, 3805, 3808
25643, 4820, 4818, 2083, 5610
25644, 4984, 4982, 2220, 5624
25645, 2232, 5638, 5006, 5004
25646, 2763, 2764, 2897, 2841
25647, 260, 5400, 1585, 227
25648, 5401, 251, 1576, 208
25649, 365, 1884, 1889, 4713
25650, 1888, 364, 4714, 1882
25651, 1883, 1888, 1889, 4715
25652, 2468, 590, 591, 2624
25653, 591, 2535, 2625, 2590
25654, 2850, 2849, 730, 2848
25655, 411, 417, 5645, 5653
25656, 488, 486, 5659, 5667
25657, 4102, 1259, 1258, 1201
25658, 4871, 433, 5483, 4873
25659, 2570, 2584, 2464, 2581
25660, 2529, 2592, 2520, 2593
25661, 3074, 3111, 3214, 3130
25662, 731, 48, 2784, 2893
25663, 3831, 4031, 3840, 976
25664, 4355, 4302, 4310, 5744
25665, 1886, 4546, 1887, 1939
25666, 4882, 5569, 436, 2141
25667, 2733, 2872, 2925, 2921
25668, 2474, 2512, 2559, 2508
25669, 741, 606, 605, 2900
25670, 923, 3027, 3026, 3435
25671, 1122, 76, 42, 4049
25672, 1111, 1091, 856, 67
25673, 1378, 1377, 4021, 4170
25674, 4180, 1363, 1362, 3860
25675, 1956, 4632, 1957, 4668
25676, 3474, 3366, 3581, 1200
25677, 5603, 5612, 5607, 4827
25678, 5626, 5617, 4991, 5621
25679, 5635, 5013, 5631, 5640
25680, 2606, 2608, 2503, 2581
25681, 2855, 2853, 2779, 2854
25682, 5550, 4799, 2071, 2072
25683, 4629, 1953, 1952, 4695
25684, 2389, 5479, 5315, 2388
25685, 5377, 2418, 2417, 5478
25686, 2616, 2474, 2559, 2600
25687, 1522, 1523, 1569, 5714
25688, 1579, 1551, 1552, 5715
25689, 2466, 2579, 2612, 2530
25690, 2270, 5009, 4997, 5644
25691, 5616, 2239, 4811, 4823
25692, 5630, 4975, 4987, 2261
25693, 5009, 502, 477, 2225
25694, 404, 482, 2076, 4823
25695, 471, 496, 2213, 4987
25696, 3671, 4013, 3947, 3873
25697, 329, 1786, 4434, 4388
25698, 4246, 4241, 1452, 4248
25699, 1419, 4222, 4215, 4220
25700, 4382, 292, 1691, 4330
25701, 2473, 2459, 2554, 2555
25702, 4192, 4196, 4186, 5683
25703, 2602, 573, 2551, 2538
25704, 4367, 316, 321, 4352
25705, 4454, 349, 353, 4469
25706, 302, 4305, 4350, 1688
25707, 4839, 4835, 4842, 5647
25708, 5032, 5661, 5028, 5035
25709, 2588, 2463, 2587, 2539
25710, 4167, 4024, 1381, 4168
25711, 2128, 433, 4871, 4873
25712, 5026, 5661, 5672, 5031
25713, 5647, 4838, 5658, 4833
25714, 2548, 2460, 2547, 2476
25715, 4801, 398, 2062, 5516
25716, 1294, 1374, 4017, 4106
25717, 970, 3055, 969, 2832
25718, 4809, 2075, 5606, 4812
25719, 4976, 4973, 5620, 2212
25720, 4995, 2224, 5634, 4998
25721, 3200, 3193, 1117, 1027
25722, 4785, 523, 2053, 2054
25723, 526, 2048, 2047, 4765
25724, 616, 615, 2763, 2841
25725, 3697, 3783, 188, 4108
25726, 2099, 2445, 4836, 5650
25727, 2451, 2255, 5664, 5029
25728, 4221, 1504, 4210, 1503
25729, 1531, 4236, 1532, 4247
25730, 2606, 567, 613, 2528
25731, 2778, 2777, 2863, 2746
25732, 728, 3194, 729, 861
25733, 1916, 1897, 1917, 1905
25734, 2748, 2729, 2889, 2785
25735, 2562, 2564, 2591, 2522
25736, 5671, 5661, 5026, 5032
25737, 5657, 4839, 5647, 4833
25738, 3565, 3340, 1267, 3625
25739, 737, 2879, 2797, 2716
25740, 2839, 2924, 2760, 727
25741, 1188, 3300, 3554, 1189
25742, 3299, 3377, 162, 4109
25743, 40, 713, 3088, 997
25744, 3384, 3329, 3592, 3419
25745, 4926, 5370, 458, 5745
25746, 4923, 2179, 454, 5501
25747, 3486, 3596, 3276, 3624
25748, 2882, 2886, 2895, 2715
25749, 2880, 2797, 2879, 2883
25750, 3319, 3533, 3590, 3385
25751, 5439, 2373, 2374, 5256
25752, 2357, 2358, 5212, 5438
25753, 4, 688, 546, 598
25754, 45, 2856, 2909, 2790
25755, 83, 906, 3005, 3393
25756, 591, 592, 2495, 2625
25757, 4221, 4214, 1504, 1513
25758, 4240, 1531, 1543, 4247
25759, 5640, 5632, 5636, 4999
25760, 5618, 5626, 4977, 5622
25761, 5604, 4813, 5608, 5612
25762, 616, 617, 570, 2532
25763, 4837, 2087, 411, 5654
25764, 2244, 5668, 488, 5030
25765, 847, 768, 53, 1049
25766, 910, 84, 908, 906
25767, 2254, 5671, 5032, 5666
25768, 5652, 2097, 4839, 5657
25769, 188, 3697, 4108, 1296
25770, 3858, 1358, 1357, 5750
25771, 2897, 735, 2899, 2908
25772, 2571, 588, 2536, 2580
25773, 2726, 2725, 2724, 2864
25774, 2597, 2616, 2478, 2512
25775, 592, 591, 2535, 2625
25776, 2089, 5060, 5059, 2299
25777, 2301, 5071, 5072, 2246
25778, 5645, 2282, 4843, 5649
25779, 5663, 2293, 5659, 5036
25780, 2878, 737, 2879, 2880
25781, 4217, 4209, 1418, 1502
25782, 4235, 1453, 1533, 4243
25783, 1409, 4199, 1408, 4059
25784, 3198, 3195, 3191, 725
25785, 3419, 3636, 3592, 3591
25786, 4307, 4355, 1707, 4308
25787, 4390, 4391, 1828, 4457
25788, 4931, 5471, 5419, 5723
25789, 5470, 4854, 5418, 5722
25790, 3427, 3585, 3370, 3571
25791, 5639, 5004, 5638, 5003
25792, 4817, 4818, 5611, 5610
25793, 5625, 4981, 4982, 5624
25794, 727, 2760, 2839, 2717
25795, 2718, 610, 2791, 2892
25796, 957, 803, 2829, 802
25797, 2251, 5076, 2290, 5037
25798, 2094, 5064, 2279, 4844
25799, 2515, 544, 545, 2456
25800, 3423, 3478, 3322, 3342
25801, 5641, 2265, 503, 5058
25802, 5655, 2274, 509, 5067
25803, 5669, 2285, 516, 5079
25804, 497, 5049, 5627, 2256
25805, 5613, 2234, 483, 5025
25806, 2496, 2498, 2561, 2497
25807, 2888, 2771, 2719, 2775
25808, 2929, 2872, 2885, 2732
25809, 584, 2582, 2486, 2607
25810, 3360, 3543, 3586, 3575
25811, 1405, 4058, 4203, 1404
25812, 1454, 1455, 4091, 4143
25813, 1121, 141, 145, 1110
25814, 2891, 2774, 2836, 2914
25815, 3543, 3344, 3360, 3343
25816, 2787, 2882, 2793, 2715
25817, 2918, 2910, 729, 2849
25818, 553, 599, 600, 2694
25819, 5670, 489, 5073, 2245
25820, 412, 2088, 5061, 5656
25821, 4248, 1452, 1453, 5684
25822, 1418, 1419, 4222, 5683
25823, 3433, 3023, 28, 3015
25824, 3592, 3361, 3384, 3419
25825, 4999, 5640, 5632, 5007
25826, 5626, 4985, 5618, 4977
25827, 5604, 4821, 4813, 5612
25828, 4903, 2160, 448, 5566
25829, 4111, 1271, 3492, 1189
25830, 1657, 305, 5223, 1672
25831, 332, 1750, 5267, 1758
25832, 2721, 567, 613, 2765
25833, 1841, 313, 1863, 1854
25834, 2493, 2567, 2566, 2490
25835, 2857, 2858, 2856, 2790
25836, 1323, 3810, 3264, 3821
25837, 2584, 2464, 2491, 2570
25838, 4852, 4854, 2104, 5722
25839, 4931, 4929, 2183, 5723
25840, 469, 542, 5593, 5628
25841, 402, 540, 5594, 5614
25842, 538, 475, 5642, 5595
25843, 5654, 5646, 2087, 5653
25844, 5660, 5668, 5667, 2244
25845, 1025, 3201, 3197, 1115
25846, 2398, 5303, 5445, 2399
25847, 5365, 5444, 2428, 2427
25848, 2737, 2736, 2734, 2866
25849, 5637, 5644, 5001, 2226
25850, 4815, 2077, 5609, 5616
25851, 2385, 5432, 5314, 2384
25852, 2414, 5433, 2413, 5376
25853, 4229, 4268, 1570, 4274
25854, 4255, 4284, 1570, 4278
25855, 714, 40, 713, 3088
25856, 2836, 2773, 2771, 2748
25857, 1026, 3197, 3193, 1116
25858, 2530, 2466, 568, 2503
25859, 382, 4755, 4855, 4848
25860, 3297, 3321, 3320, 3519
25861, 3194, 729, 3199, 3192
25862, 5610, 4820, 4828, 5605
25863, 5624, 4984, 4992, 5619
25864, 5638, 5633, 5006, 5014
25865, 2199, 459, 466, 4958
25866, 2464, 2584, 2528, 2581
25867, 1301, 189, 3799, 5740
25868, 529, 5419, 2432, 5398
25869, 2433, 528, 5336, 5418
25870, 1800, 4440, 337, 4442
25871, 4113, 1275, 3484, 3497
25872, 2489, 2464, 2517, 2581
25873, 2597, 2471, 2595, 2596
25874, 258, 285, 284, 1812
25875, 273, 247, 274, 1597
25876, 2791, 610, 2835, 2892
25877, 3316, 3559, 1155, 3574
25878, 621, 574, 573, 2538
25879, 923, 3473, 3365, 3570
25880, 891, 3022, 3439, 3438
25881, 3381, 3283, 3595, 3341
25882, 2872, 2741, 2855, 2921
25883, 1409, 1410, 4197, 4055
25884, 2623, 588, 589, 2589
25885, 2466, 2612, 2481, 2608
25886, 1857, 1858, 1846, 4589
25887, 2269, 2270, 4997, 5633
25888, 2238, 5605, 2239, 4811
25889, 2261, 5619, 4975, 2260
25890, 2307, 5099, 5452, 2306
25891, 5453, 2328, 2327, 5145
25892, 3360, 3344, 3543, 3575
25893, 730, 2792, 46, 2849
25894, 4567, 338, 1765, 5738
25895, 4658, 4599, 1936, 1935
25896, 2573, 2571, 2500, 2572
25897, 2998, 2975, 2638, 2946
25898, 2943, 2632, 2665, 2686
25899, 2449, 2254, 5590, 5666
25900, 5652, 5591, 2097, 2443
25901, 1929, 4586, 4653, 1930
25902, 1163, 1151, 1164, 3423
25903, 1957, 4637, 362, 4710
25904, 4846, 539, 5650, 5656
25905, 5664, 541, 5670, 5039
25906, 814, 2830, 815, 968
25907, 3359, 3557, 1176, 3317
25908, 2757, 2786, 2875, 2853
25909, 2902, 2863, 2859, 2778
25910, 2460, 2475, 2547, 2476
25911, 608, 561, 2720, 2758
25912, 3519, 3321, 3320, 3527
25913, 2072, 400, 5561, 4808
25914, 429, 2126, 5498, 4869
25915, 3771, 3676, 1298, 3946
25916, 1438, 4285, 4249, 4280
25917, 4270, 1416, 4275, 4223
25918, 2615, 15, 597, 2504
25919, 1811, 343, 4414, 4450
25920, 3519, 3320, 3528, 3527
25921, 3023, 1218, 919, 3433
25922, 2432, 5419, 5471, 5723
25923, 2433, 5470, 5418, 5722
25924, 353, 1838, 1797, 4453
25925, 321, 1717, 4351, 1677
25926, 46, 730, 2849, 2848
25927, 1879, 1880, 363, 4598
25928, 1837, 1836, 1795, 4467
25929, 4503, 4501, 372, 4498
25930, 2516, 625, 626, 2706
25931, 2939, 677, 676, 904
25932, 5310, 5420, 2401, 2402
25933, 5422, 2430, 2431, 5372
25934, 4125, 1265, 3482, 3603
25935, 307, 1664, 5222, 1665
25936, 1757, 335, 5266, 1765
25937, 924, 923, 3026, 1222
25938, 4834, 5654, 5649, 5648
25939, 5663, 5662, 5027, 5668
25940, 1271, 3554, 3492, 1189
25941, 5649, 413, 2089, 5655
25942, 5663, 5669, 490, 2246
25943, 5576, 4967, 467, 2200
25944, 2556, 2502, 2557, 2558
25945, 2839, 727, 2717, 728
25946, 1207, 1208, 1193, 4116
25947, 1373, 1382, 4026, 5740
25948, 2026, 2025, 4739, 5103
25949, 5149, 2033, 2032, 4740
25950, 4509, 4499, 1883, 4715
25951, 4841, 4836, 5654, 5650
25952, 5029, 5034, 5664, 5668
25953, 2614, 598, 15, 2507
25954, 1096, 867, 2926, 72
25955, 4469, 286, 4294, 4428
25956, 4344, 4367, 269, 4263
25957, 3204, 987, 1133, 986
25958, 1312, 3787, 1311, 3796
25959, 1216, 4121, 3413, 1181
25960, 4813, 5608, 4819, 5604
25961, 4977, 4983, 5618, 5622
25962, 4999, 5632, 5636, 5005
25963, 2551, 573, 2484, 2538
25964, 2891, 2742, 2767, 2774
25965, 2477, 2523, 2550, 2476
25966, 1069, 1088, 54, 129
25967, 553, 554, 600, 2601
25968, 2779, 2725, 2727, 2854
25969, 2896, 2867, 2727, 2854
25970, 4095, 1433, 1432, 4075
25971, 4063, 4062, 1398, 1397
25972, 1888, 1883, 1882, 4499
25973, 4554, 4607, 4617, 1940
25974, 3256, 3215, 3134, 3106
25975, 3264, 3810, 156, 3212
25976, 2791, 2835, 2922, 2892
25977, 3340, 1214, 1267, 3625
25978, 2847, 45, 2876, 724
25979, 4582, 4599, 4592, 5718
25980, 3789, 4021, 1304, 1303
25981, 1551, 1580, 4254, 5715
25982, 1568, 1523, 4228, 5714
25983, 4285, 4279, 4249, 4280
25984, 4269, 4270, 4275, 4223
25985, 5654, 4834, 4841, 5648
25986, 5034, 5027, 5662, 5668
25987, 2606, 568, 567, 2503
25988, 2928, 2885, 2734, 2929
25989, 598, 546, 545, 2614
25990, 3080, 3208, 3109, 3136
25991, 2563, 2564, 2562, 2494
25992, 617, 618, 571, 2546
25993, 4169, 1316, 3796, 1317
25994, 5572, 5584, 485, 4831
25995, 416, 5015, 5571, 5583
25996, 2891, 2874, 2929, 2798
25997, 4755, 382, 1998, 4848
25998, 2217, 2261, 4987, 5046
25999, 2239, 2080, 5022, 4823
26000, 2270, 5009, 2229, 5055
26001, 2460, 2475, 571, 2546
26002, 2568, 2584, 2491, 2570
26003, 4113, 1203, 166, 3313
26004, 2473, 2554, 559, 2533
26005, 4172, 3799, 3794, 1313
26006, 3433, 3010, 917, 3015
26007, 5595, 5636, 538, 2442
26008, 5608, 540, 5594, 2448
26009, 5593, 542, 2454, 5622
26010, 873, 950, 2927, 73
26011, 5671, 2289, 5077, 5038
26012, 547, 544, 2515, 2456
26013, 1959, 372, 4713, 4503
26014, 2732, 2872, 2885, 2733
26015, 2502, 2557, 2555, 2556
26016, 2492, 589, 590, 2622
26017, 5619, 4984, 4979, 4975
26018, 5605, 4820, 4815, 4811
26019, 5006, 5633, 4997, 5001
26020, 3010, 1218, 1217, 3433
26021, 3630, 3811, 174, 1253
26022, 2778, 43, 2902, 2751
26023, 2369, 2368, 5241, 5459
26024, 5458, 2353, 2352, 5197
26025, 5413, 5428, 5427, 5696
26026, 1504, 4221, 1513, 1503
26027, 1531, 1532, 1543, 4247
26028, 2916, 2728, 726, 725
26029, 571, 570, 617, 2532
26030, 2720, 2758, 2776, 2840
26031, 96, 4089, 1461, 4142
26032, 4096, 4104, 4102, 3803
26033, 858, 3195, 3198, 725
26034, 1896, 1916, 1915, 1904
26035, 1851, 1850, 1859, 1844
26036, 220, 4277, 1439, 5184
26037, 1431, 213, 5185, 4267
26038, 5424, 5425, 5412, 5697
26039, 3821, 980, 3081, 981
26040, 1522, 1569, 4231, 5714
26041, 1579, 1552, 4257, 5715
26042, 3210, 3237, 3101, 3236
26043, 2566, 2518, 2493, 2490
26044, 2761, 2760, 2906, 2794
26045, 2877, 2926, 46, 5700
26046, 2405, 2406, 5414, 5373
26047, 5311, 2376, 2377, 5415
26048, 2551, 2482, 2472, 2484
26049, 3359, 3557, 3317, 3428
26050, 4023, 1380, 1379, 4169
26051, 1344, 4179, 1343, 3847
26052, 2737, 2734, 2928, 2870
26053, 5211, 2358, 2359, 5422
26054, 2374, 2375, 5420, 5255
26055, 2519, 2584, 2585, 2528
26056, 3445, 1226, 1227, 926
26057, 2771, 2765, 2888, 2719
26058, 3807, 4098, 986, 3808
26059, 1455, 4091, 4143, 4144
26060, 4058, 4203, 4204, 1405
26061, 3337, 3532, 3612, 3425
26062, 2568, 2490, 2567, 2569
26063, 649, 655, 650, 2998
26064, 3646, 3590, 3533, 3385
26065, 3175, 776, 839, 1057
26066, 779, 1060, 3176, 836
26067, 2577, 2477, 2547, 2475
26068, 804, 803, 2827, 958
26069, 2612, 2579, 2466, 2479
26070, 2477, 2611, 2577, 2550
26071, 2461, 2583, 2529, 2585
26072, 3528, 3635, 3306, 3530
26073, 2623, 2536, 588, 2589
26074, 3344, 3358, 3405, 3575
26075, 5009, 4997, 2229, 5055
26076, 4987, 4975, 2217, 5046
26077, 4811, 5022, 2080, 4823
26078, 3251, 3204, 1133, 986
26079, 3866, 3739, 3948, 3958
26080, 2616, 2478, 2474, 2459
26081, 3507, 1213, 3625, 1266
26082, 1939, 1886, 4546, 4521
26083, 1882, 4714, 4499, 4507
26084, 903, 2986, 676, 904
26085, 2886, 2864, 2895, 2762
26086, 2065, 2066, 4793, 5508
26087, 5595, 5636, 2442, 2233
26088, 2084, 5608, 5594, 2448
26089, 5593, 2454, 2221, 5622
26090, 306, 1672, 4481, 5742
26091, 1862, 1854, 1841, 1863
26092, 4376, 4488, 1615, 4370
26093, 4574, 4441, 4435, 1803
26094, 4438, 4436, 4571, 1805
26095, 4371, 4377, 1617, 4485
26096, 3152, 1023, 3155, 5750
26097, 2610, 576, 577, 2712
26098, 2612, 2466, 2530, 2608
26099, 5571, 4830, 410, 5583
26100, 487, 5584, 5572, 4994
26101, 2608, 2481, 2466, 2503
26102, 3635, 3356, 3590, 3536
26103, 1248, 3743, 3718, 1238
26104, 2491, 2490, 2518, 2568
26105, 3577, 3363, 3622, 3477
26106, 2471, 2597, 2478, 2512
26107, 1365, 1364, 4179, 3862
26108, 557, 603, 556, 2544
26109, 1616, 4371, 4489, 4376
26110, 4575, 4436, 4441, 1804
26111, 553, 554, 2601, 2478
26112, 2318, 523, 5121, 2054
26113, 2334, 526, 2047, 5167
26114, 4109, 3299, 3377, 3493
26115, 3545, 3281, 3391, 3626
26116, 3022, 924, 3026, 3432
26117, 3962, 3676, 3771, 3946
26118, 1342, 4180, 1341, 3845
26119, 5076, 2251, 5026, 5037
26120, 5064, 2094, 4833, 4844
26121, 3034, 3040, 3442, 933
26122, 2835, 2884, 2745, 2922
26123, 2351, 2350, 5466, 5196
26124, 5240, 2367, 2366, 5467
26125, 4307, 4355, 4309, 4306
26126, 4389, 4390, 4457, 4392
26127, 2858, 2859, 2860, 2783
26128, 1644, 1629, 4302, 4309
26129, 4392, 1747, 1725, 4385
26130, 4322, 4301, 1651, 1637
26131, 2605, 2522, 2501, 2511
26132, 3236, 3237, 3117, 3251
26133, 2609, 2614, 15, 2507
26134, 1288, 3818, 1261, 3776
26135, 3543, 3586, 3614, 3360
26136, 2764, 2756, 2904, 2775
26137, 3194, 3199, 729, 861
26138, 275, 242, 1522, 4231
26139, 275, 253, 4257, 1552
26140, 4212, 1505, 1511, 1506
26141, 1530, 4238, 1529, 1511
26142, 4505, 372, 4503, 4713
26143, 3022, 3432, 3439, 3438
26144, 1020, 117, 3152, 5750
26145, 1715, 4324, 4365, 1675
26146, 3168, 3167, 1032, 5740
26147, 504, 2228, 2273, 5010
26148, 498, 2216, 2264, 4988
26149, 2242, 4824, 484, 2079
26150, 3866, 1194, 1193, 5748
26151, 2480, 2611, 2577, 2477
26152, 5655, 509, 2274, 5086
26153, 5080, 497, 5627, 2256
26154, 2265, 503, 5083, 5641
26155, 2285, 516, 5089, 5669
26156, 5068, 2234, 483, 5613
26157, 3953, 3661, 3745, 3912
26158, 4834, 4837, 5654, 4841
26159, 5668, 5034, 5027, 5030
26160, 1417, 4270, 4227, 4223
26161, 4280, 4249, 1437, 4253
26162, 5018, 5017, 5069, 2236
26163, 2287, 5071, 5072, 5090
26164, 5060, 5059, 5087, 2276
26165, 5051, 5084, 2267, 5050
26166, 5081, 5042, 5041, 2258
26167, 2872, 2733, 2731, 2741
26168, 3556, 3366, 3581, 3474
26169, 4510, 4498, 1881, 5757
26170, 1945, 4709, 360, 1871
26171, 3198, 45, 2909, 725
26172, 2717, 2760, 2839, 2907
26173, 2787, 2756, 2882, 2715
26174, 2749, 2775, 2890, 2787
26175, 2937, 891, 3022, 3439
26176, 4990, 4978, 4986, 5617
26177, 4814, 4822, 4826, 5603
26178, 5631, 5012, 5008, 5000
26179, 1114, 1290, 186, 3203
26180, 2849, 2792, 2918, 2851
26181, 2584, 2519, 2464, 2528
26182, 572, 2548, 2526, 2602
26183, 3349, 3430, 3494, 3268
26184, 1336, 103, 978, 1126
26185, 3575, 3344, 3543, 3535
26186, 2475, 2547, 2532, 2546
26187, 4249, 1553, 4279, 4285
26188, 1528, 4269, 4275, 4223
26189, 3341, 3283, 3595, 3475
26190, 1175, 1139, 1176, 3359
26191, 2797, 2744, 2772, 2883
26192, 4370, 4486, 1614, 4375
26193, 4572, 4435, 4443, 1802
26194, 4569, 4437, 4438, 1806
26195, 2687, 2978, 2966, 2993
26196, 2155, 2156, 4904, 5510
26197, 2064, 4796, 4805, 5509
26198, 4377, 4372, 1618, 4483
26199, 2847, 2857, 2856, 724
26200, 4094, 1434, 1433, 4083
26201, 1399, 1398, 4071, 4061
26202, 1321, 4096, 1320, 3801
26203, 5000, 5007, 5640, 4999
26204, 4814, 4821, 5612, 4813
26205, 4978, 4977, 4985, 5626
26206, 2841, 2775, 2904, 2890
26207, 1504, 4214, 246, 1513
26208, 1543, 246, 1531, 4240
26209, 2552, 2549, 2582, 2521
26210, 2838, 2780, 2880, 2902
26211, 2380, 2381, 5319, 5452
26212, 5453, 2409, 2410, 5381
26213, 5612, 5606, 5607, 4812
26214, 5620, 5626, 4976, 5621
26215, 5640, 5634, 5635, 4998
26216, 2566, 2565, 2493, 2564
26217, 2742, 2929, 2734, 2732
26218, 4491, 309, 1665, 1599
26219, 3402, 3549, 3614, 3283
26220, 2469, 2580, 2571, 2573
26221, 2467, 2623, 2567, 2569
26222, 1980, 4771, 377, 4730
26223, 1981, 4729, 379, 4788
26224, 3816, 3576, 1260, 3822
26225, 1514, 1513, 4221, 1503
26226, 1542, 1543, 1532, 4247
26227, 2902, 2912, 44, 723
26228, 3442, 3034, 933, 932
26229, 2817, 38, 3071, 955
26230, 3531, 3530, 3318, 3532
26231, 4078, 1436, 4092, 1435
26232, 1401, 1400, 4066, 4059
26233, 1517, 1508, 4208, 1509
26234, 1536, 1547, 1537, 4234
26235, 813, 967, 2828, 814
26236, 5450, 2407, 2408, 5383
26237, 2378, 2379, 5321, 5451
26238, 2780, 2902, 723, 2751
26239, 4616, 1869, 4607, 4495
26240, 4521, 1939, 1886, 1885
26241, 2223, 5052, 475, 5642
26242, 469, 5628, 2211, 5043
26243, 5614, 402, 5019, 2074
26244, 2088, 5059, 5061, 2298
26245, 2300, 5073, 5071, 2245
26246, 2296, 5052, 5050, 2223
26247, 5043, 2294, 2211, 5041
26248, 2283, 5019, 5017, 2074
26249, 566, 612, 613, 2528
26250, 2599, 594, 2541, 2621
26251, 460, 5414, 2192, 4954
26252, 2149, 423, 4897, 5415
26253, 4118, 3602, 4117, 1276
26254, 3195, 3158, 3191, 725
26255, 4553, 1938, 1887, 4618
26256, 3283, 3403, 3475, 3341
26257, 3822, 160, 1179, 1328
26258, 2600, 2527, 553, 2459
26259, 1262, 1180, 3776, 1261
26260, 4106, 1296, 4108, 3971
26261, 5003, 5638, 5632, 5002
26262, 5618, 4980, 4981, 5624
26263, 5610, 4817, 4816, 5604
26264, 4819, 2084, 397, 2448
26265, 2233, 2442, 439, 5005
26266, 2548, 2460, 572, 2526
26267, 1654, 300, 308, 5747
26268, 4595, 4580, 4510, 5757
26269, 2916, 2858, 2873, 2728
26270, 4564, 336, 1758, 1822
26271, 2865, 2737, 2870, 2866
26272, 4213, 4210, 4216, 4211
26273, 4236, 4237, 4239, 4242
26274, 4444, 1920, 347, 1778
26275, 348, 1921, 4440, 1770
26276, 2796, 2761, 2760, 2907
26277, 2936, 620, 573, 2711
26278, 720, 719, 3083, 3207
26279, 4932, 4928, 386, 2180
26280, 2550, 2523, 2463, 2582
26281, 4457, 4456, 1827, 5739
26282, 5038, 5076, 2252, 5026
26283, 4845, 5064, 2095, 4833
26284, 5524, 320, 1689, 5528
26285, 3017, 25, 3003, 908
26286, 2897, 2764, 735, 2908
26287, 2882, 2895, 2793, 2715
26288, 151, 1290, 1114, 3203
26289, 2742, 2891, 2929, 2798
26290, 2745, 2911, 2884, 2835
26291, 724, 2857, 2856, 2790
26292, 1803, 1817, 4441, 4452
26293, 1615, 4297, 1604, 4376
26294, 4436, 1805, 4451, 1819
26295, 1602, 4296, 1617, 4371
26296, 5608, 5594, 540, 5614
26297, 5622, 5593, 542, 5628
26298, 5636, 538, 5642, 5595
26299, 2909, 2916, 858, 725
26300, 4121, 1216, 4119, 1181
26301, 5656, 5648, 2088, 2298
26302, 5670, 2300, 5662, 2245
26303, 5642, 2223, 2296, 5634
26304, 2283, 5606, 5614, 2074
26305, 2211, 5628, 5620, 2294
26306, 4154, 1477, 4132, 1478
26307, 575, 623, 576, 2545
26308, 3194, 3196, 728, 3160
26309, 2847, 2876, 2912, 724
26310, 2872, 2733, 2741, 2921
26311, 1208, 3424, 4112, 1209
26312, 4124, 1265, 4125, 3603
26313, 3602, 3484, 4117, 1276
26314, 2248, 2292, 2249, 5033
26315, 4840, 2092, 2281, 2091
26316, 385, 4952, 2005, 4727
26317, 2004, 383, 4728, 4895
26318, 2245, 5670, 489, 5039
26319, 412, 4846, 2088, 5656
26320, 4250, 4252, 4255, 4278
26321, 4224, 4268, 4229, 4226
26322, 5004, 5008, 5003, 5639
26323, 4818, 4822, 4817, 5611
26324, 4981, 4982, 4986, 5625
26325, 4374, 1693, 318, 1847
26326, 4378, 317, 1701, 1868
26327, 1453, 4248, 4245, 4243
26328, 4217, 1418, 4222, 4219
26329, 4509, 1883, 1884, 1889
26330, 4997, 5643, 5633, 5006
26331, 5605, 5615, 4820, 4811
26332, 4984, 5619, 5629, 4975
26333, 2246, 490, 5663, 5027
26334, 2089, 4834, 413, 5649
26335, 2871, 2796, 2921, 2907
26336, 1428, 4070, 1427, 4163
26337, 1444, 1445, 4152, 4082
26338, 3403, 3283, 3475, 919
26339, 4750, 1989, 1990, 5320
26340, 1967, 5382, 4749, 1968
26341, 2538, 2484, 2553, 2578
26342, 2549, 2550, 2523, 2476
26343, 1783, 5525, 345, 1782
26344, 2756, 2904, 2775, 2787
26345, 2848, 46, 730, 2877
26346, 1340, 4183, 196, 3850
26347, 557, 558, 2695, 2609
26348, 1706, 4354, 4355, 5744
26349, 2745, 2750, 2887, 2789
26350, 2465, 563, 2520, 2593
26351, 2769, 2842, 2928, 2742
26352, 5416, 2385, 5297, 2386
26353, 2414, 2415, 5417, 5359
26354, 1522, 4228, 1523, 5714
26355, 4254, 1552, 1551, 5715
26356, 2904, 2882, 2890, 2787
26357, 180, 1294, 4110, 3737
26358, 43, 2778, 2902, 2859
26359, 3865, 3709, 3764, 3676
26360, 3587, 87, 1280, 3021
26361, 2208, 5499, 5495, 4966
26362, 2165, 452, 2164, 4916
26363, 2574, 2514, 2481, 2572
26364, 1602, 1603, 1668, 5393
26365, 1818, 1817, 1762, 5331
26366, 2571, 2488, 2580, 2469
26367, 3118, 990, 1004, 989
26368, 451, 2164, 4917, 2165
26369, 1819, 1818, 1761, 5330
26370, 1603, 1604, 1669, 5392
26371, 5015, 438, 418, 5571
26372, 1158, 1156, 1159, 3365
26373, 2786, 2735, 2779, 2853
26374, 2764, 2763, 2775, 2841
26375, 1023, 3152, 117, 5750
26376, 2763, 2897, 616, 2841
26377, 2506, 626, 625, 2610
26378, 4166, 3798, 191, 1318
26379, 2866, 2871, 2736, 2925
26380, 1581, 1550, 5408, 4253
26381, 4227, 1567, 1524, 5409
26382, 4301, 1654, 1638, 5747
26383, 4394, 334, 1786, 1828
26384, 4311, 303, 1707, 1688
26385, 2609, 544, 545, 2507
26386, 2840, 607, 608, 2758
26387, 3705, 3962, 1371, 3709
26388, 3194, 729, 3192, 3159
26389, 2574, 2481, 2612, 2608
26390, 2875, 2717, 728, 2923
26391, 600, 554, 553, 2694
26392, 4570, 4444, 1777, 4437
26393, 4573, 4440, 4443, 1771
26394, 84, 910, 3014, 906
26395, 2485, 2599, 2596, 2617
26396, 1860, 1851, 1843, 1852
26397, 2363, 2362, 5272, 5476
26398, 2346, 5228, 5477, 2347
26399, 2033, 5152, 391, 4736
26400, 2026, 4735, 388, 5106
26401, 1343, 4181, 1342, 3846
26402, 2608, 2466, 2530, 2503
26403, 2928, 2769, 2770, 2892
26404, 672, 677, 2691, 905
26405, 2531, 2465, 562, 2501
26406, 3015, 80, 3012, 899
26407, 2851, 2849, 2792, 2850
26408, 4841, 2088, 5650, 5648
26409, 5662, 5664, 2245, 5034
26410, 4263, 4367, 269, 1563
26411, 4294, 1596, 286, 4469
26412, 1901, 333, 1902, 4623
26413, 592, 593, 2497, 2626
26414, 804, 805, 959, 2825
26415, 167, 1216, 1469, 3389
26416, 2786, 2796, 2717, 2915
26417, 4106, 4017, 3966, 3869
26418, 3763, 4005, 4013, 3653
26419, 723, 1016, 43, 3166
26420, 2548, 2546, 2460, 2526
26421, 2088, 5650, 5648, 5656
26422, 5620, 5622, 5628, 2211
26423, 5634, 5642, 2223, 5636
26424, 5606, 5608, 5614, 2074
26425, 5670, 5662, 5664, 2245
26426, 3001, 3020, 24, 894
26427, 2570, 2489, 2517, 2581
26428, 5446, 2377, 5293, 2378
26429, 5447, 2406, 2407, 5355
26430, 1909, 1908, 342, 4628
26431, 2099, 412, 539, 4846
26432, 489, 541, 2255, 5039
26433, 2063, 2064, 4798, 5499
26434, 1845, 1850, 1858, 1849
26435, 1914, 1895, 1915, 1903
26436, 3117, 3101, 3237, 3236
26437, 567, 613, 614, 2606
26438, 569, 570, 616, 2763
26439, 1702, 4347, 1703, 4368
26440, 4395, 331, 332, 5739
26441, 4348, 1692, 1691, 4373
26442, 3774, 3779, 3866, 1194
26443, 1700, 4378, 4372, 4484
26444, 1822, 1821, 336, 5326
26445, 1606, 1607, 310, 5388
26446, 812, 2826, 813, 966
26447, 2073, 397, 2447, 5604
26448, 4374, 1694, 4375, 4487
26449, 577, 11, 2524, 711
26450, 914, 88, 1217, 3007
26451, 619, 572, 2526, 2602
26452, 1821, 1820, 1759, 5327
26453, 1605, 1606, 1671, 5389
26454, 2539, 583, 584, 2628
26455, 1660, 4315, 5201, 1661
26456, 1754, 1753, 4398, 5245
26457, 4268, 4226, 4272, 4274
26458, 4252, 4282, 4284, 4278
26459, 3507, 3482, 4125, 1266
26460, 5026, 2290, 5076, 5037
26461, 4833, 2279, 5064, 4844
26462, 43, 724, 723, 3166
26463, 5031, 5026, 5661, 5032
26464, 5647, 4839, 4838, 4833
26465, 5603, 4814, 5612, 4827
26466, 5617, 4991, 4978, 5626
26467, 5013, 5631, 5640, 5000
26468, 4698, 4588, 1933, 1932
26469, 2760, 2906, 2924, 2907
26470, 4147, 1471, 4145, 1472
26471, 1487, 4158, 1486, 4205
26472, 2856, 45, 2847, 724
26473, 2459, 2474, 2600, 2555
26474, 1137, 1177, 3366, 1178
26475, 2885, 2734, 2736, 2866
26476, 4122, 1181, 1182, 3946
26477, 2735, 2725, 2779, 2854
26478, 1357, 1020, 116, 3152
26479, 4431, 1768, 4446, 1769
26480, 4582, 4592, 1865, 5718
26481, 5406, 1516, 4219, 1515
26482, 1541, 5407, 1540, 4245
26483, 940, 44, 92, 1017
26484, 3545, 3532, 3531, 3425
26485, 2658, 2949, 2635, 2630
26486, 4846, 412, 539, 5656
26487, 541, 489, 5670, 5039
26488, 337, 1814, 1800, 4442
26489, 4470, 355, 4471, 5733
26490, 3156, 3153, 3155, 5699
26491, 729, 2792, 2757, 2918
26492, 1689, 1690, 320, 5524
26493, 3365, 3473, 3559, 3570
26494, 5026, 5038, 5671, 5032
26495, 4845, 4839, 5657, 4833
26496, 2842, 2891, 2929, 2742
26497, 3049, 681, 3045, 936
26498, 439, 2441, 5632, 2442
26499, 5604, 397, 2447, 2448
26500, 1120, 3203, 3192, 3163
26501, 386, 4932, 2010, 4756
26502, 382, 4755, 1999, 4855
26503, 618, 2899, 736, 872
26504, 2025, 2024, 4746, 5097
26505, 5143, 2032, 2031, 4745
26506, 1759, 4570, 4437, 1807
26507, 4375, 1671, 1613, 4487
26508, 4443, 4573, 1764, 1801
26509, 1619, 4372, 4484, 1666
26510, 504, 476, 2228, 5010
26511, 498, 470, 2216, 4988
26512, 4824, 403, 484, 2079
26513, 5632, 2441, 439, 2142
26514, 2253, 5671, 5038, 5032
26515, 5657, 2096, 4839, 4845
26516, 1182, 178, 4123, 4122
26517, 2835, 2745, 2911, 2887
26518, 3820, 980, 104, 3127
26519, 348, 4440, 1771, 1770
26520, 1777, 4444, 347, 1778
26521, 1113, 149, 3198, 45
26522, 1862, 1861, 1842, 1853
26523, 4366, 1676, 1716, 5747
26524, 1897, 4624, 1906, 1905
26525, 2614, 15, 2544, 2609
26526, 2692, 7, 551, 2458
26527, 1937, 4656, 4707, 4593
26528, 2889, 2914, 2836, 2785
26529, 2842, 2795, 612, 2767
26530, 926, 3445, 3031, 3035
26531, 5037, 5026, 5672, 5031
26532, 4833, 4838, 5658, 4844
26533, 2707, 715, 41, 722
26534, 1827, 4456, 1785, 5739
26535, 3199, 729, 46, 3164
26536, 2496, 2563, 2562, 2494
26537, 1948, 1947, 4644, 4692
26538, 4657, 1946, 4633, 4706
26539, 1200, 3581, 1258, 1257
26540, 2796, 2741, 2761, 2921
26541, 412, 5061, 2275, 5656
26542, 5073, 2286, 489, 5670
26543, 2289, 5076, 2252, 5038
26544, 2278, 5064, 2095, 4845
26545, 3158, 3161, 726, 3195
26546, 2490, 2467, 2567, 2569
26547, 2464, 2503, 2517, 2581
26548, 2565, 2567, 2492, 2622
26549, 4838, 2090, 2280, 5658
26550, 2291, 5672, 5031, 2247
26551, 1700, 317, 1701, 4378
26552, 660, 645, 2939, 2669
26553, 2127, 433, 4871, 2128
26554, 1694, 1693, 318, 4374
26555, 434, 2127, 4874, 2128
26556, 2720, 2840, 608, 2758
26557, 3554, 1271, 1188, 1189
26558, 2608, 2530, 2606, 2503
26559, 4092, 1459, 4138, 1458
26560, 2522, 2564, 2499, 2494
26561, 708, 707, 38, 2834
26562, 3494, 1280, 3268, 3587
26563, 206, 1401, 1418, 4055
26564, 219, 1436, 4088, 1453
26565, 2612, 2579, 2479, 2577
26566, 3163, 1120, 118, 1022
26567, 417, 4835, 5653, 2098
26568, 486, 5028, 5667, 2243
26569, 4754, 2029, 5146, 2028
26570, 4753, 2022, 2021, 5100
26571, 3203, 1120, 118, 3163
26572, 331, 4385, 332, 5739
26573, 2220, 4980, 2453, 5624
26574, 2083, 4816, 2447, 5610
26575, 2441, 5638, 2232, 5002
26576, 2877, 730, 2848, 2913
26577, 1956, 1955, 4638, 4654
26578, 3871, 1375, 4108, 3971
26579, 4820, 4828, 4818, 5610
26580, 4984, 4992, 4982, 5624
26581, 5014, 5006, 5638, 5004
26582, 4354, 1706, 1687, 5744
26583, 2474, 2559, 2555, 2557
26584, 728, 3196, 727, 3160
26585, 2763, 2719, 2775, 2841
26586, 5661, 5667, 5028, 5035
26587, 4835, 5653, 4842, 5647
26588, 1132, 3251, 1133, 986
26589, 3709, 3705, 3962, 3764
26590, 2561, 2498, 2496, 2558
26591, 1137, 1136, 1178, 3474
26592, 1157, 1158, 3473, 1156
26593, 2553, 2551, 2472, 2484
26594, 4752, 2023, 2022, 5096
26595, 2030, 2029, 5142, 4751
26596, 4710, 1957, 4632, 4668
26597, 2329, 2328, 5443, 5141
26598, 2307, 5442, 5095, 2308
26599, 4812, 5607, 5612, 4827
26600, 4976, 5626, 4991, 5621
26601, 5640, 5635, 5013, 4998
26602, 4177, 1345, 199, 3849
26603, 5461, 5094, 2305, 2306
26604, 2327, 2326, 5460, 5140
26605, 2527, 553, 2601, 2600
26606, 2499, 2465, 2591, 2522
26607, 3812, 1260, 3576, 3822
26608, 894, 24, 662, 930
26609, 2600, 2474, 2559, 2555
26610, 5424, 5412, 5369, 5697
26611, 294, 293, 289, 1975
26612, 352, 356, 355, 1997
26613, 5413, 5427, 5307, 5696
26614, 4443, 1771, 1772, 1788
26615, 4375, 1695, 1679, 1694
26616, 1776, 1793, 1777, 4437
26617, 2478, 2601, 553, 2459
26618, 1700, 1699, 1684, 4372
26619, 1321, 164, 3802, 3803
26620, 2911, 2743, 2745, 2884
26621, 3191, 3165, 3202, 1112
26622, 4233, 5187, 225, 1452
26623, 4207, 1419, 214, 5186
26624, 2158, 446, 4913, 5512
26625, 2893, 48, 2913, 731
26626, 2930, 2708, 20, 712
26627, 2628, 2539, 583, 2607
26628, 2732, 2742, 2929, 2798
26629, 1779, 1780, 4445, 4432
26630, 2859, 2857, 43, 2752
26631, 3319, 3338, 3533, 3385
26632, 3745, 3729, 3912, 3728
26633, 2522, 2562, 2564, 2494
26634, 3198, 3162, 45, 725
26635, 2918, 2757, 2875, 2851
26636, 2729, 2889, 2747, 2748
26637, 1838, 1837, 1796, 4468
26638, 1717, 1716, 4366, 1676
26639, 3009, 3496, 3587, 913
26640, 2753, 2852, 2851, 2850
26641, 4005, 3873, 4013, 3653
26642, 352, 351, 355, 1824
26643, 294, 290, 289, 1609
26644, 4444, 4570, 1821, 1807
26645, 1815, 4573, 4440, 1801
26646, 2729, 2730, 2914, 2785
26647, 3559, 3316, 3571, 3574
26648, 2888, 2889, 2749, 2890
26649, 370, 1923, 1925, 1941
26650, 111, 3848, 3851, 1346
26651, 2461, 564, 2529, 2520
26652, 2551, 2472, 2552, 2553
26653, 2551, 2482, 573, 2602
26654, 4181, 1364, 1363, 3861
26655, 1379, 1378, 4022, 4171
26656, 617, 2713, 2764, 2763
26657, 3323, 1468, 3583, 4114
26658, 2749, 2747, 2889, 2748
26659, 1446, 225, 4153, 4080
26660, 214, 4068, 1429, 4164
26661, 1961, 1866, 1717, 5757
26662, 4385, 331, 323, 1719
26663, 5662, 2245, 2246, 5034
26664, 2089, 2088, 4841, 5648
26665, 2986, 2939, 2971, 2669
26666, 1284, 3720, 1283, 1367
26667, 4734, 375, 5399, 1964
26668, 4733, 381, 1986, 5337
26669, 732, 2762, 2784, 2886
26670, 2853, 2779, 2786, 2855
26671, 375, 5399, 4925, 4734
26672, 478, 2230, 5011, 5056
26673, 5047, 2218, 472, 4989
26674, 5023, 2081, 405, 4825
26675, 221, 222, 1482, 4149
26676, 217, 216, 4160, 1494
26677, 4365, 4320, 4324, 1715
26678, 3202, 3165, 119, 1112
26679, 365, 4505, 372, 5757
26680, 2483, 2597, 2478, 2471
26681, 1442, 4150, 4084, 1443
26682, 4072, 1425, 1426, 4161
26683, 4378, 1600, 1619, 4484
26684, 2971, 2939, 645, 2669
26685, 4837, 4836, 5654, 4841
26686, 5668, 5029, 5034, 5030
26687, 2732, 2885, 2734, 2733
26688, 4374, 1613, 1606, 4487
26689, 866, 72, 69, 1096
26690, 73, 879, 67, 950
26691, 2474, 2459, 2473, 2555
26692, 5661, 5032, 5666, 5035
26693, 4839, 4842, 5652, 5647
26694, 4435, 1772, 1773, 1789
26695, 4370, 1695, 1696, 1680
26696, 1776, 1775, 1792, 4438
26697, 1699, 1698, 1683, 4377
26698, 597, 30, 15, 2704
26699, 2776, 2754, 2782, 2894
26700, 960, 806, 2823, 805
26701, 2075, 5607, 5606, 4812
26702, 5621, 4976, 5620, 2212
26703, 2224, 5635, 5634, 4998
26704, 4365, 1638, 4366, 5747
26705, 761, 1037, 760, 854
26706, 789, 1075, 825, 790
26707, 795, 794, 821, 1080
26708, 765, 850, 766, 1042
26709, 5072, 5089, 5669, 5074
26710, 5655, 5062, 5060, 5086
26711, 5641, 5051, 5083, 5053
26712, 5044, 5627, 5080, 5042
26713, 5018, 5068, 5613, 5020
26714, 4108, 1375, 4106, 3971
26715, 1262, 3709, 3865, 3676
26716, 1234, 3868, 3924, 3756
26717, 2750, 2776, 2782, 2894
26718, 2853, 2875, 2757, 2851
26719, 2571, 2488, 2469, 2573
26720, 4440, 4573, 348, 1771
26721, 347, 4570, 4444, 1777
26722, 4499, 1958, 1888, 4715
26723, 2782, 2743, 2911, 2883
26724, 2760, 2924, 2839, 2907
26725, 1313, 3799, 189, 4174
26726, 433, 435, 5483, 4873
26727, 435, 433, 2128, 4873
26728, 613, 566, 567, 2721
26729, 2526, 619, 19, 716
26730, 2916, 2909, 2856, 725
26731, 1773, 1774, 4441, 1790
26732, 1696, 1697, 4376, 1681
26733, 1775, 1774, 1791, 4436
26734, 4371, 1698, 1682, 1697
26735, 2089, 5060, 2299, 5655
26736, 5669, 2301, 5072, 2246
26737, 2556, 2470, 2605, 2604
26738, 3603, 4124, 3481, 3579
26739, 545, 546, 3, 2614
26740, 2837, 732, 2784, 2886
26741, 3807, 1201, 1258, 1200
26742, 2610, 625, 2506, 2613
26743, 2627, 586, 2487, 2469
26744, 3549, 3595, 3283, 3475
26745, 4997, 5009, 2270, 5055
26746, 4975, 4987, 2261, 5046
26747, 4811, 2239, 5022, 4823
26748, 4548, 4720, 367, 4524
26749, 597, 2615, 2504, 2510
26750, 2612, 2611, 2480, 2574
26751, 4378, 1700, 317, 4484
26752, 1468, 182, 3583, 4114
26753, 5593, 2221, 4973, 5622
26754, 4809, 5608, 5594, 2084
26755, 5636, 5595, 4995, 2233
26756, 224, 1451, 1544, 4241
26757, 215, 1420, 4215, 1520
26758, 2792, 2753, 2851, 2850
26759, 4374, 318, 1694, 4487
26760, 1492, 4192, 1493, 4165
26761, 2744, 2797, 2880, 2883
26762, 2486, 583, 584, 2607
26763, 3545, 3391, 3281, 3425
26764, 1898, 1897, 1906, 1917
26765, 1136, 1178, 3474, 3421
26766, 3164, 46, 1119, 1022
26767, 3776, 3865, 1180, 1262
26768, 2563, 2565, 2468, 2624
26769, 1965, 4727, 5341, 1964
26770, 1986, 1987, 4728, 5279
26771, 3022, 891, 79, 2938
26772, 2855, 2786, 2853, 2915
26773, 589, 588, 2623, 2467
26774, 177, 1264, 1469, 3491
26775, 597, 706, 30, 3070
26776, 812, 965, 811, 2824
26777, 2539, 584, 583, 2607
26778, 2675, 8, 548, 2457
26779, 4734, 2010, 4932, 4756
26780, 4755, 4733, 1999, 4855
26781, 4838, 2091, 5651, 2280
26782, 2248, 5031, 2291, 5665
26783, 1158, 3473, 3420, 1157
26784, 861, 3199, 729, 2910
26785, 1348, 1347, 3854, 3845
26786, 3929, 1367, 3720, 3867
26787, 24, 3011, 3001, 2636
26788, 3803, 4096, 1321, 3801
26789, 2886, 2837, 2893, 2784
26790, 3854, 1352, 1353, 3860
26791, 2540, 2483, 2618, 2597
26792, 2181, 5370, 458, 4926
26793, 2466, 2612, 2480, 2481
26794, 3863, 1360, 200, 4177
26795, 2745, 2750, 2911, 2887
26796, 2437, 5258, 533, 5696
26797, 2299, 5648, 2089, 5655
26798, 2301, 5669, 5662, 2246
26799, 532, 5214, 2435, 5697
26800, 2551, 573, 2482, 2484
26801, 2467, 2567, 2492, 2490
26802, 643, 672, 23, 2691
26803, 4254, 4286, 4252, 4278
26804, 4228, 4276, 4268, 4226
26805, 1193, 1207, 4116, 3422
26806, 2848, 2849, 46, 2846
26807, 2618, 2504, 2615, 2595
26808, 3583, 3642, 1275, 1468
26809, 4810, 4828, 4815, 5609
26810, 5623, 4992, 4974, 4979
26811, 5014, 5637, 5001, 4996
26812, 4257, 253, 275, 1529
26813, 242, 275, 1505, 4231
26814, 3116, 3101, 3237, 3117
26815, 2599, 2560, 2462, 2621
26816, 121, 1382, 3168, 5740
26817, 546, 598, 3, 2614
26818, 4855, 2102, 382, 4848
26819, 4747, 2024, 2023, 5098
26820, 2031, 2030, 5144, 4748
26821, 2743, 2782, 2772, 2883
26822, 3253, 3117, 3237, 3251
26823, 5665, 2291, 2248, 2292
26824, 2281, 5651, 2091, 2280
26825, 5637, 2271, 2226, 2272
26826, 2240, 2241, 2077, 5609
26827, 2214, 2263, 5623, 2262
26828, 2028, 2027, 5151, 4749
26829, 2021, 2020, 4750, 5105
26830, 1958, 1888, 4714, 4499
26831, 2739, 2745, 2884, 2770
26832, 1827, 1786, 1828, 4457
26833, 1706, 4355, 1707, 1688
26834, 1693, 1692, 4343, 4379
26835, 4342, 1702, 1701, 4369
26836, 1846, 1857, 1848, 1849
26837, 1914, 1894, 1902, 1913
26838, 322, 4607, 4554, 1940
26839, 4443, 4435, 4572, 1772
26840, 4375, 4370, 4486, 1695
26841, 4437, 4438, 1776, 4569
26842, 2481, 2612, 2480, 2574
26843, 2464, 2489, 2491, 2570
26844, 1699, 4372, 4377, 4483
26845, 251, 208, 270, 1576
26846, 288, 227, 260, 1585
26847, 737, 2797, 2880, 2744
26848, 4354, 1706, 1705, 1687
26849, 728, 2919, 2875, 2923
26850, 2275, 520, 5061, 5088
26851, 2235, 511, 5019, 5070
26852, 5043, 518, 5082, 2257
26853, 2266, 5085, 519, 5052
26854, 5073, 2286, 521, 5091
26855, 4829, 399, 407, 5493
26856, 2331, 2330, 5431, 5150
26857, 5104, 5430, 2310, 2309
26858, 5620, 4973, 5626, 5622
26859, 5606, 5608, 4809, 5612
26860, 5634, 5636, 4995, 5640
26861, 2485, 2596, 2471, 2617
26862, 4717, 1890, 1838, 1960
26863, 1893, 1717, 1961, 4719
26864, 1777, 347, 4570, 1793
26865, 1771, 4573, 348, 1788
26866, 1700, 1684, 317, 4484
26867, 318, 1679, 1694, 4487
26868, 1445, 1446, 4153, 4080
26869, 4068, 1428, 1429, 4164
26870, 5492, 398, 409, 4832
26871, 1600, 1601, 1666, 5395
26872, 1816, 1815, 1764, 5333
26873, 4114, 4112, 3424, 1209
26874, 4996, 5639, 5637, 5631
26875, 5625, 4974, 5617, 5623
26876, 5609, 4810, 5611, 5603
26877, 1827, 1826, 1785, 4456
26878, 4282, 4252, 4286, 4278
26879, 4226, 4276, 4268, 4272
26880, 4107, 1270, 3479, 3555
26881, 857, 2845, 2909, 3198
26882, 2625, 2495, 2563, 2561
26883, 1599, 1600, 309, 5396
26884, 1815, 1814, 337, 5334
26885, 4837, 4843, 4834, 5649
26886, 5036, 5663, 5027, 5030
26887, 4048, 204, 5716, 5760
26888, 1769, 4442, 4426, 1770
26889, 4439, 1778, 1779, 4427
26890, 5667, 5666, 5660, 2243
26891, 5653, 5646, 2098, 5652
26892, 1925, 4635, 370, 1941
26893, 397, 2073, 4819, 5604
26894, 621, 622, 2934, 2629
26895, 5635, 2224, 5010, 4998
26896, 4988, 4976, 5621, 2212
26897, 5607, 2075, 4824, 4812
26898, 4267, 213, 5185, 1416
26899, 2464, 2489, 2570, 2581
26900, 600, 554, 2694, 2702
26901, 1775, 4438, 4436, 4571
26902, 1698, 4377, 4371, 4485
26903, 4435, 4441, 4574, 1773
26904, 4370, 4376, 4488, 1696
26905, 2549, 2548, 2476, 2482
26906, 1381, 4024, 190, 4168
26907, 5666, 5032, 2254, 5035
26908, 5652, 2097, 4842, 4839
26909, 49, 2800, 2817, 2834
26910, 2816, 17, 2833, 2804
26911, 2401, 5439, 5298, 2400
26912, 2429, 2430, 5438, 5360
26913, 724, 43, 2857, 2752
26914, 4209, 4221, 4210, 1503
26915, 4236, 4235, 1532, 4247
26916, 2512, 2478, 2474, 2559
26917, 4498, 4505, 4506, 5757
26918, 2508, 2485, 2599, 2462
26919, 4737, 1987, 1988, 5322
26920, 4738, 5384, 1966, 1965
26921, 744, 2805, 743, 2830
26922, 2829, 755, 2815, 756
26923, 444, 2151, 4907, 5563
26924, 2803, 744, 745, 2828
26925, 755, 754, 2827, 2807
26926, 4371, 4489, 4376, 1697
26927, 4575, 4436, 1774, 4441
26928, 165, 3286, 3811, 1202
26929, 4834, 5654, 4837, 5649
26930, 5668, 5027, 5663, 5030
26931, 745, 746, 2802, 2826
26932, 2809, 754, 2825, 753
26933, 1133, 4098, 1132, 986
26934, 5637, 5014, 5639, 4996
26935, 4828, 4810, 5611, 5609
26936, 4974, 5625, 4992, 5623
26937, 2521, 2549, 2476, 2482
26938, 746, 747, 2812, 2824
26939, 753, 2823, 2806, 752
26940, 4488, 1615, 1604, 4376
26941, 4441, 4574, 1817, 1803
26942, 1805, 4436, 4571, 1819
26943, 4371, 1617, 1602, 4485
26944, 2563, 2494, 2495, 2468
26945, 5038, 2289, 5076, 5026
26946, 2278, 5064, 4845, 4833
26947, 2442, 5632, 439, 5005
26948, 5604, 4819, 397, 2448
26949, 2446, 2083, 2447, 5610
26950, 2453, 2220, 5624, 2452
26951, 2232, 2440, 5638, 2441
26952, 2888, 2771, 2749, 2748
26953, 4456, 4457, 1724, 5739
26954, 2811, 747, 748, 2822
26955, 752, 751, 2821, 2810
26956, 317, 4342, 4491, 1678
26957, 295, 4304, 1626, 4356
26958, 4387, 4458, 325, 1722
26959, 161, 1185, 3377, 1467
26960, 749, 2813, 748, 2820
26961, 2814, 751, 2819, 750
26962, 2818, 749, 2808, 750
26963, 3676, 3865, 1181, 3946
26964, 3420, 924, 1223, 3473
26965, 2544, 557, 603, 2609
26966, 5074, 490, 5669, 2246
26967, 413, 5062, 2089, 5655
26968, 1113, 3162, 45, 3198
26969, 602, 556, 2544, 2603
26970, 4371, 1603, 1616, 4489
26971, 1804, 4441, 4575, 1818
26972, 4489, 1603, 1616, 4376
26973, 4575, 4436, 1804, 1818
26974, 724, 2856, 45, 2790
26975, 5052, 2266, 475, 5642
26976, 469, 5628, 5043, 2257
26977, 402, 5019, 2235, 5614
26978, 5651, 5653, 417, 4835
26979, 486, 5665, 5667, 5028
26980, 1071, 129, 788, 1088
26981, 953, 100, 796, 1084
26982, 122, 1033, 759, 1085
26983, 1046, 125, 767, 1090
26984, 1089, 126, 767, 1046
26985, 759, 1033, 102, 973
26986, 796, 133, 1086, 1084
26987, 788, 1087, 130, 1071
26988, 1371, 1370, 3962, 3705
26989, 5648, 5649, 2089, 5655
26990, 5669, 5663, 5662, 2246
26991, 4709, 360, 4596, 1926
26992, 1805, 4571, 4438, 1819
26993, 4488, 1604, 1615, 4370
26994, 2142, 439, 5632, 5005
26995, 2821, 961, 807, 806
26996, 4120, 1210, 167, 3417
26997, 3484, 1275, 4113, 1276
26998, 2521, 2552, 2549, 2551
26999, 1105, 42, 3148, 76
27000, 4151, 1444, 4079, 1443
27001, 1427, 4067, 1426, 4162
27002, 4355, 4354, 1628, 5744
27003, 1375, 4108, 4105, 3871
27004, 139, 867, 2926, 1096
27005, 2443, 507, 2096, 5657
27006, 2449, 5671, 514, 2253
27007, 2561, 2495, 2496, 2497
27008, 390, 5155, 2027, 4741
27009, 389, 4742, 2020, 5109
27010, 3191, 3162, 1113, 3198
27011, 2895, 2896, 2726, 2864
27012, 777, 3174, 1058, 838
27013, 2454, 4983, 444, 2221
27014, 857, 2909, 858, 3198
27015, 2871, 2761, 2796, 2907
27016, 147, 134, 1092, 5676
27017, 2565, 2493, 2564, 2494
27018, 2797, 2782, 2879, 2883
27019, 5036, 488, 5668, 5030
27020, 4843, 411, 5654, 4837
27021, 2601, 2597, 2616, 2478
27022, 5451, 5107, 522, 2304
27023, 5450, 2325, 525, 5153
27024, 3745, 3953, 3912, 4014
27025, 98, 873, 950, 2927
27026, 626, 577, 2506, 2524
27027, 2874, 2732, 2798, 2730
27028, 1324, 174, 3811, 1253
27029, 2350, 2349, 5468, 5221
27030, 5265, 2366, 2365, 5469
27031, 288, 262, 1737, 4386
27032, 4303, 270, 249, 1652
27033, 2525, 544, 558, 2507
27034, 2510, 2615, 2504, 2595
27035, 3073, 970, 31, 2816
27036, 4435, 4572, 1816, 1802
27037, 1614, 1605, 4486, 4370
27038, 1806, 4438, 4569, 1820
27039, 1618, 1601, 4377, 4483
27040, 2300, 5670, 5073, 2245
27041, 2296, 5052, 2223, 5642
27042, 5019, 2283, 5614, 2074
27043, 5656, 2088, 5061, 2298
27044, 2211, 5628, 2294, 5043
27045, 1217, 88, 3616, 3007
27046, 807, 808, 962, 2819
27047, 2478, 2616, 2474, 2559
27048, 1882, 353, 364, 4508
27049, 5001, 5633, 5637, 5014
27050, 5605, 4815, 4828, 5609
27051, 4979, 5623, 4992, 5619
27052, 1581, 5402, 1550, 4253
27053, 5403, 4227, 1567, 1524
27054, 2101, 4850, 420, 5308
27055, 2730, 2874, 2867, 2914
27056, 422, 468, 4971, 2204
27057, 3164, 1119, 3199, 3192
27058, 4386, 1736, 287, 4454
27059, 4303, 4352, 271, 1640
27060, 2898, 607, 2758, 2714
27061, 2929, 2874, 2872, 2732
27062, 2435, 2359, 5214, 532
27063, 2375, 2437, 5258, 533
27064, 2574, 2573, 2514, 2572
27065, 2774, 2891, 2798, 2914
27066, 4497, 371, 4507, 4502
27067, 964, 811, 2822, 810
27068, 2582, 584, 2539, 2607
27069, 3532, 3337, 3318, 3425
27070, 4104, 4096, 1321, 3803
27071, 1716, 1715, 4365, 1675
27072, 2098, 2087, 5646, 5653
27073, 2243, 5660, 5667, 2244
27074, 3200, 3202, 1028, 1118
27075, 488, 5036, 5668, 5659
27076, 411, 4843, 5654, 5645
27077, 2482, 2548, 572, 2602
27078, 3774, 1194, 3866, 5748
27079, 2600, 553, 2601, 2459
27080, 1685, 302, 4481, 4335
27081, 2901, 2898, 740, 2900
27082, 2500, 2481, 2514, 2572
27083, 4109, 1467, 179, 3493
27084, 3360, 3586, 3614, 3402
27085, 4427, 4564, 347, 1787
27086, 2468, 2565, 2493, 2492
27087, 2308, 5436, 5101, 2309
27088, 2330, 2329, 5437, 5147
27089, 2799, 756, 757, 2831
27090, 2832, 742, 2801, 743
27091, 2616, 2478, 2512, 2559
27092, 2455, 547, 544, 2525
27093, 275, 1522, 1569, 4231
27094, 1579, 275, 4257, 1552
27095, 643, 23, 644, 2691
27096, 4982, 4980, 2220, 5624
27097, 2083, 4818, 4816, 5610
27098, 5004, 2232, 5638, 5002
27099, 11, 2708, 2709, 715
27100, 4320, 4365, 4321, 1715
27101, 2570, 2517, 2572, 2581
27102, 2929, 2885, 2734, 2732
27103, 2580, 2488, 587, 2469
27104, 2914, 2889, 2729, 2785
27105, 4632, 4637, 1957, 4710
27106, 2523, 2582, 2549, 2521
27107, 37, 971, 3053, 758
27108, 2368, 2367, 5264, 5462
27109, 5463, 2352, 2351, 5220
27110, 5529, 5525, 345, 1783
27111, 1421, 215, 151, 4157
27112, 224, 150, 4146, 1450
27113, 1437, 1438, 4249, 4280
27114, 4270, 1417, 1416, 4223
27115, 3534, 3624, 3535, 3369
27116, 3804, 3819, 106, 1322
27117, 2354, 2353, 5454, 5219
27118, 5263, 2370, 2369, 5455
27119, 3962, 3865, 3764, 3676
27120, 90, 3633, 3403, 3285
27121, 617, 2713, 735, 2764
27122, 306, 4312, 305, 5744
27123, 2212, 2211, 5620, 5041
27124, 5017, 5606, 2074, 2075
27125, 5634, 2223, 5050, 2224
27126, 341, 1919, 342, 1908
27127, 2140, 441, 4880, 5559
27128, 2540, 600, 554, 2601
27129, 1182, 1215, 1181, 4122
27130, 2242, 5603, 5607, 4827
27131, 5617, 2264, 4991, 5621
27132, 2273, 5635, 5013, 5631
27133, 2533, 2473, 2554, 2555
27134, 4986, 5625, 4974, 5617
27135, 4822, 5611, 4810, 5603
27136, 5631, 5008, 4996, 5639
27137, 2492, 2567, 2493, 2490
27138, 2514, 2481, 2480, 2574
27139, 1025, 1024, 3159, 3201
27140, 2503, 2608, 2517, 2581
27141, 1828, 4391, 333, 1749
27142, 1707, 1655, 304, 4308
27143, 2788, 2770, 2769, 2892
27144, 2786, 2741, 2796, 2915
27145, 576, 623, 2610, 2545
27146, 4165, 214, 1429, 4164
27147, 225, 4153, 4154, 1446
27148, 2872, 2925, 2885, 2733
27149, 2891, 2874, 2798, 2914
27150, 306, 305, 4302, 5744
27151, 4570, 1759, 1821, 1807
27152, 4484, 1600, 1619, 1666
27153, 1671, 1606, 1613, 4487
27154, 1815, 1764, 4573, 1801
27155, 2558, 2502, 2498, 2511
27156, 44, 2780, 2838, 2902
27157, 572, 2460, 2548, 2482
27158, 1716, 367, 374, 4719
27159, 1816, 4572, 4443, 1802
27160, 1605, 1614, 4486, 4375
27161, 1806, 4569, 4437, 1820
27162, 1601, 1618, 4372, 4483
27163, 1592, 283, 4288, 4412
27164, 272, 4328, 1564, 4265
27165, 220, 4285, 1438, 4277
27166, 103, 3266, 3814, 3817
27167, 2820, 810, 809, 963
27168, 2610, 2506, 14, 2613
27169, 507, 2096, 5657, 4845
27170, 4256, 4249, 1553, 4279
27171, 4223, 1528, 4269, 4230
27172, 1641, 306, 297, 4302
27173, 2730, 2867, 2731, 2727
27174, 2502, 2556, 2470, 2511
27175, 2540, 555, 601, 2603
27176, 4993, 446, 474, 5492
27177, 4846, 4841, 2088, 5650
27178, 5664, 2245, 5034, 5039
27179, 4549, 373, 366, 1837
27180, 2494, 2496, 2563, 2495
27181, 1469, 1264, 3640, 3491
27182, 599, 553, 2601, 2527
27183, 2577, 2479, 2480, 2477
27184, 2559, 2512, 2616, 2617
27185, 2730, 2798, 2874, 2914
27186, 2454, 2453, 444, 5618
27187, 2498, 2560, 2561, 2497
27188, 2560, 2561, 2497, 2626
27189, 2753, 2792, 730, 2850
27190, 2519, 2461, 565, 2585
27191, 3421, 3474, 1259, 1201
27192, 2556, 2533, 2473, 2470
27193, 3158, 1027, 3200, 1028
27194, 3443, 936, 946, 935
27195, 4567, 1794, 340, 4418
27196, 1721, 380, 324, 4387
27197, 4304, 376, 296, 1643
27198, 2921, 2796, 2915, 2907
27199, 4561, 327, 4466, 1732
27200, 4479, 299, 1636, 4364
27201, 4836, 2087, 4837, 5654
27202, 5029, 2244, 5030, 5668
27203, 2605, 2501, 2470, 2511
27204, 1480, 5307, 234, 5696
27205, 962, 809, 2818, 808
27206, 5369, 1498, 237, 5697
27207, 81, 894, 3020, 3001
27208, 723, 2902, 43, 2751
27209, 3200, 3158, 3191, 3195
27210, 3817, 3814, 103, 979
27211, 2582, 2552, 2521, 2486
27212, 946, 947, 936, 3443
27213, 2889, 2747, 2749, 2890
27214, 5612, 4809, 5606, 4812
27215, 4976, 4973, 5626, 5620
27216, 5640, 4995, 5634, 4998
27217, 1603, 1616, 4296, 4371
27218, 4451, 1804, 4436, 1818
27219, 1804, 4452, 4441, 1818
27220, 1603, 4297, 1616, 4376
27221, 4381, 273, 1622, 1597
27222, 1610, 1609, 290, 4383
27223, 1798, 1812, 285, 4449
27224, 4124, 1265, 3481, 4120
27225, 2582, 2523, 2463, 2486
27226, 2483, 555, 2540, 2618
27227, 1623, 292, 4299, 4330
27228, 853, 762, 1039, 852
27229, 1077, 824, 791, 823
27230, 1078, 823, 793, 822
27231, 1040, 852, 764, 851
27232, 3011, 3017, 24, 3020
27233, 3473, 924, 923, 3365
27234, 4118, 3602, 1276, 3480
27235, 4250, 4254, 4252, 4278
27236, 4268, 4224, 4228, 4226
27237, 2282, 2093, 4843, 5649
27238, 5663, 2250, 2293, 5036
27239, 1905, 1904, 1916, 1896
27240, 2562, 2605, 2558, 2511
27241, 3366, 3474, 1201, 1200
27242, 4467, 4384, 1733, 4405
27243, 3817, 103, 3079, 979
27244, 2245, 5664, 5670, 5039
27245, 5650, 2088, 4846, 5656
27246, 4268, 4228, 4224, 5714
27247, 4250, 4254, 4278, 5715
27248, 1836, 4407, 339, 1795
27249, 3159, 3192, 3194, 3201
27250, 2254, 5590, 5666, 5035
27251, 2097, 5591, 5652, 4842
27252, 5671, 5661, 5032, 5666
27253, 5652, 4839, 5647, 5657
27254, 5615, 2082, 481, 2446
27255, 495, 2452, 5629, 2219
27256, 5643, 2231, 501, 2440
27257, 5187, 1538, 1545, 4233
27258, 1507, 1519, 4207, 5186
27259, 3192, 729, 3164, 3159
27260, 846, 769, 768, 1050
27261, 1067, 829, 786, 787
27262, 4370, 4488, 4486, 1680
27263, 4574, 4572, 4435, 1789
27264, 4571, 1792, 4438, 4569
27265, 1683, 4377, 4485, 4483
27266, 2463, 2587, 585, 2487
27267, 2295, 2212, 5620, 5041
27268, 5017, 2284, 5606, 2075
27269, 5634, 5050, 2297, 2224
27270, 2073, 397, 4797, 5560
27271, 5013, 5057, 2273, 5631
27272, 2264, 4991, 5048, 5617
27273, 5024, 5603, 2242, 4827
27274, 1119, 3199, 46, 3164
27275, 2483, 2504, 555, 2618
27276, 1762, 1763, 1817, 4574
27277, 1669, 1670, 1604, 4488
27278, 1667, 1668, 1602, 4485
27279, 1760, 1761, 1819, 4571
27280, 1191, 1192, 3424, 4112
27281, 778, 837, 1059, 3174
27282, 2161, 2160, 4909, 5565
27283, 109, 1320, 4096, 3801
27284, 228, 5400, 1463, 1548
27285, 5401, 207, 1402, 1521
27286, 4441, 4575, 4574, 1790
27287, 4489, 4488, 4376, 1681
27288, 4571, 4436, 1791, 4575
27289, 4485, 4371, 1682, 4489
27290, 2614, 2544, 15, 2615
27291, 1901, 333, 334, 1913
27292, 1848, 304, 303, 1856
27293, 2512, 2617, 2557, 2508
27294, 889, 78, 3420, 1157
27295, 1328, 3826, 3813, 3823
27296, 3212, 3810, 156, 1127
27297, 158, 1136, 1135, 3421
27298, 2573, 2514, 2575, 2574
27299, 1210, 4124, 3481, 4120
27300, 2879, 2782, 2894, 2883
27301, 2562, 2522, 2496, 2494
27302, 2494, 2563, 2565, 2468
27303, 5230, 2356, 2357, 5440
27304, 2372, 2373, 5441, 5274
27305, 1917, 1918, 1906, 1898
27306, 4301, 4322, 4365, 1637
27307, 566, 2464, 2519, 2528
27308, 2717, 2796, 2760, 2907
27309, 5493, 440, 419, 5016
27310, 2842, 2769, 2795, 2742
27311, 1308, 94, 3793, 3786
27312, 4572, 1764, 1763, 1816
27313, 1671, 1605, 1670, 4486
27314, 4569, 1760, 1759, 1820
27315, 1601, 4483, 1666, 1667
27316, 737, 2780, 2880, 2838
27317, 2470, 2556, 2533, 2604
27318, 2564, 2563, 2565, 2494
27319, 113, 48, 5699, 5700
27320, 709, 13, 710, 580
27321, 48, 732, 2784, 2837
27322, 2048, 394, 4769, 5417
27323, 2053, 395, 5416, 4787
27324, 2703, 689, 32, 2833
27325, 2834, 708, 37, 2705
27326, 1820, 4437, 1806, 1807
27327, 4443, 1816, 1802, 1801
27328, 1614, 1605, 1613, 4375
27329, 3481, 3640, 4120, 1264
27330, 1601, 1618, 1619, 4372
27331, 2596, 2597, 2471, 2617
27332, 221, 222, 4149, 1439
27333, 217, 216, 1431, 4160
27334, 3162, 3191, 3158, 725
27335, 923, 1222, 3473, 3570
27336, 548, 6, 552, 2675
27337, 2517, 2481, 2608, 2503
27338, 1424, 1425, 4074, 4159
27339, 1442, 4086, 4148, 1441
27340, 1400, 1399, 4064, 4060
27341, 1435, 1434, 4093, 4076
27342, 5035, 5667, 2243, 5666
27343, 4842, 5653, 2098, 5652
27344, 2481, 2574, 2572, 2608
27345, 2572, 2517, 2481, 2608
27346, 2512, 2485, 2471, 2617
27347, 4395, 332, 4385, 5739
27348, 736, 19, 618, 872
27349, 1186, 3299, 162, 4109
27350, 2212, 2295, 5042, 5041
27351, 2284, 5017, 5018, 2075
27352, 5050, 5051, 2297, 2224
27353, 1105, 3149, 1015, 1014
27354, 3212, 3216, 3820, 1127
27355, 2928, 2842, 2769, 2892
27356, 5410, 4209, 1502, 1503
27357, 1533, 5411, 1532, 4235
27358, 2509, 2553, 2484, 2505
27359, 729, 2792, 2918, 2849
27360, 2618, 2483, 2504, 2510
27361, 2582, 2550, 2523, 2549
27362, 4797, 397, 2060, 5560
27363, 1114, 3203, 1024, 3201
27364, 2878, 737, 94, 5751
27365, 3480, 1277, 4118, 3520
27366, 2526, 10, 572, 716
27367, 1313, 3794, 4172, 1314
27368, 546, 17, 3, 2804
27369, 2730, 2798, 2914, 2785
27370, 2466, 2480, 2612, 2479
27371, 5051, 2297, 5084, 5050
27372, 5042, 2295, 5081, 5041
27373, 5060, 5059, 2299, 5087
27374, 5090, 5071, 5072, 2301
27375, 5069, 5017, 5018, 2284
27376, 1669, 4489, 4488, 4376
27377, 4574, 1762, 4575, 4441
27378, 4371, 4485, 1668, 4489
27379, 4575, 4571, 4436, 1761
27380, 4253, 1550, 5408, 4251
27381, 1524, 4225, 4227, 5409
27382, 3858, 1339, 196, 1338
27383, 4026, 1241, 189, 1300
27384, 1810, 4447, 351, 1824
27385, 2163, 4903, 448, 5549
27386, 4444, 1821, 1808, 1807
27387, 4440, 1815, 1801, 1800
27388, 2742, 2891, 2798, 2774
27389, 305, 4312, 4302, 5744
27390, 3549, 3595, 3614, 3283
27391, 581, 2543, 2619, 2613
27392, 4990, 4986, 4974, 5617
27393, 4822, 4826, 5603, 4810
27394, 5008, 5631, 4996, 5012
27395, 2783, 2778, 2859, 2746
27396, 4268, 4276, 4228, 5714
27397, 4278, 4254, 4286, 5715
27398, 1882, 364, 4714, 4508
27399, 1792, 1793, 1776, 4569
27400, 1789, 4572, 1772, 1788
27401, 4486, 1695, 1680, 1679
27402, 1699, 1683, 1684, 4483
27403, 4608, 1938, 4553, 4618
27404, 4717, 366, 373, 1837
27405, 4117, 3484, 4113, 1276
27406, 5541, 2209, 467, 4969
27407, 3266, 103, 3079, 3817
27408, 1270, 4109, 3493, 3555
27409, 2163, 444, 2453, 5618
27410, 2857, 2858, 2790, 2752
27411, 3195, 726, 3158, 725
27412, 3143, 1006, 108, 1005
27413, 2793, 2749, 2747, 2890
27414, 1600, 1619, 1620, 4378
27415, 1606, 1612, 1613, 4374
27416, 3164, 3199, 729, 3192
27417, 4812, 5612, 4814, 4827
27418, 5626, 4991, 4978, 4976
27419, 5013, 5640, 4998, 5000
27420, 529, 456, 2173, 5485
27421, 336, 1920, 4570, 4444
27422, 4573, 1921, 337, 4440
27423, 3779, 82, 1194, 1280
27424, 2469, 2627, 2580, 2573
27425, 2557, 2555, 2474, 2502
27426, 319, 1689, 1704, 4356
27427, 346, 4458, 1825, 1783
27428, 1838, 1890, 4716, 1960
27429, 1893, 1961, 1717, 4718
27430, 577, 626, 2610, 624
27431, 558, 544, 604, 2609
27432, 1789, 1773, 4574, 1790
27433, 1775, 1791, 1792, 4571
27434, 1698, 1682, 1683, 4485
27435, 1681, 4488, 1696, 1680
27436, 1852, 1843, 1860, 1861
27437, 4926, 2182, 4927, 5745
27438, 4478, 304, 1708, 4357
27439, 4562, 333, 4459, 1829
27440, 2729, 2726, 2896, 2727
27441, 4088, 1459, 1460, 4137
27442, 728, 3194, 3160, 3159
27443, 4575, 1774, 1791, 1790
27444, 1697, 1682, 4489, 1681
27445, 5217, 1662, 1661, 4317
27446, 1755, 1754, 4400, 5261
27447, 2895, 2781, 2793, 2715
27448, 1276, 1277, 4118, 3480
27449, 2923, 2915, 2717, 2907
27450, 5027, 5662, 2246, 5034
27451, 2089, 4841, 4834, 5648
27452, 5004, 4996, 5008, 5639
27453, 4982, 4986, 5625, 4974
27454, 4818, 4810, 4822, 5611
27455, 2882, 2904, 2756, 2787
27456, 361, 349, 350, 1797
27457, 358, 315, 316, 1677
27458, 4484, 4378, 309, 1868
27459, 3812, 3576, 175, 1261
27460, 42, 1105, 4049, 76
27461, 3192, 1024, 3203, 3201
27462, 310, 4374, 4487, 1847
27463, 3812, 159, 1179, 3269
27464, 1310, 3797, 3789, 1309
27465, 3440, 3450, 942, 5751
27466, 1785, 1786, 1900, 1827
27467, 1716, 374, 367, 4548
27468, 1688, 1687, 1855, 1706
27469, 1752, 4399, 1753, 5262
27470, 4316, 5218, 1659, 1660
27471, 3776, 3709, 3865, 1262
27472, 731, 2722, 47, 2893
27473, 487, 2222, 2244, 4994
27474, 2087, 4830, 410, 2085
27475, 3774, 3718, 3768, 3866
27476, 4309, 1629, 4302, 4355
27477, 1725, 4457, 4392, 4385
27478, 2744, 737, 2780, 2880
27479, 2495, 2496, 2563, 2561
27480, 4958, 459, 466, 2183
27481, 3203, 1024, 3192, 3163
27482, 358, 1866, 4595, 5757
27483, 2505, 14, 581, 2619
27484, 2546, 618, 10, 2526
27485, 4509, 1883, 1889, 4715
27486, 1904, 1915, 1895, 1903
27487, 1859, 1858, 1845, 1850
27488, 2244, 474, 488, 4993
27489, 411, 407, 4829, 2087
27490, 5016, 419, 417, 2098
27491, 486, 409, 2243, 4832
27492, 45, 1029, 3162, 1113
27493, 19, 619, 882, 716
27494, 5641, 504, 5635, 5010
27495, 498, 4988, 5621, 5627
27496, 5607, 5613, 484, 4824
27497, 2556, 2502, 2558, 2511
27498, 5370, 4926, 5399, 5745
27499, 342, 1899, 1908, 1919
27500, 2480, 2611, 2612, 2577
27501, 5638, 2441, 5632, 5002
27502, 4816, 2447, 5610, 5604
27503, 5618, 2453, 4980, 5624
27504, 4733, 1998, 381, 5337
27505, 3484, 4113, 1203, 4117
27506, 3709, 3962, 3865, 3764
27507, 660, 2939, 2691, 2669
27508, 2859, 2858, 2752, 2783
27509, 2757, 2792, 2753, 2851
27510, 2454, 444, 4983, 5618
27511, 737, 44, 2780, 2838
27512, 3204, 1004, 1005, 989
27513, 644, 660, 645, 2939
27514, 1357, 201, 3858, 5750
27515, 2469, 2500, 2514, 2573
27516, 2561, 2496, 2562, 2558
27517, 4830, 410, 406, 5571
27518, 473, 487, 5572, 4994
27519, 4505, 1884, 365, 4713
27520, 394, 5215, 2050, 5457
27521, 395, 5456, 2052, 5259
27522, 1654, 4301, 300, 5747
27523, 3191, 3162, 3198, 725
27524, 2859, 2858, 2857, 2752
27525, 3191, 3200, 3202, 1028
27526, 460, 4931, 2184, 5419
27527, 423, 5418, 2105, 4854
27528, 4838, 2090, 5658, 4844
27529, 5031, 5672, 5037, 2247
27530, 4426, 1794, 348, 4568
27531, 3202, 3165, 3191, 1028
27532, 1223, 924, 1222, 3473
27533, 2571, 2536, 588, 2623
27534, 5084, 2267, 2297, 5051
27535, 5087, 2299, 5060, 2276
27536, 5042, 5081, 2295, 2258
27537, 2236, 5069, 5018, 2284
27538, 5090, 5072, 2287, 2301
27539, 3204, 3236, 1004, 3118
27540, 1889, 4509, 1959, 4713
27541, 1772, 4572, 4443, 1788
27542, 4486, 4375, 1695, 1679
27543, 4437, 1776, 1793, 4569
27544, 963, 809, 2818, 962
27545, 606, 607, 2898, 2714
27546, 4372, 1699, 1684, 4483
27547, 3640, 3628, 3481, 4120
27548, 2480, 2611, 2477, 2513
27549, 2566, 2565, 2567, 2493
27550, 1781, 343, 4414, 4471
27551, 3198, 2909, 858, 725
27552, 2834, 37, 13, 710
27553, 546, 32, 4, 2833
27554, 3439, 22, 2937, 890
27555, 2496, 2562, 2563, 2561
27556, 2482, 572, 573, 2602
27557, 4996, 5004, 5014, 5639
27558, 4982, 5625, 4992, 4974
27559, 4810, 4818, 4828, 5611
27560, 2557, 2559, 2512, 2508
27561, 431, 433, 5483, 4871
27562, 625, 580, 2506, 2613
27563, 353, 350, 349, 1797
27564, 316, 315, 321, 1677
27565, 2923, 2717, 2839, 2907
27566, 1303, 4020, 1302, 3790
27567, 2565, 2567, 2493, 2492
27568, 1793, 4570, 1777, 4437
27569, 1771, 4443, 4573, 1788
27570, 1694, 1679, 4375, 4487
27571, 49, 2800, 757, 2817
27572, 2804, 2816, 17, 742
27573, 4372, 1684, 1700, 4484
27574, 5643, 5638, 5633, 5006
27575, 5610, 5615, 4820, 5605
27576, 5619, 5624, 4984, 5629
27577, 175, 3818, 3812, 1261
27578, 46, 2848, 2844, 2877
27579, 2894, 2840, 2776, 2903
27580, 2498, 2560, 2497, 2462
27581, 2572, 2517, 2608, 2581
27582, 892, 78, 3420, 889
27583, 2573, 2500, 2514, 2572
27584, 2545, 2610, 14, 2613
27585, 3165, 1029, 119, 1112
27586, 4123, 1214, 3409, 1215
27587, 4498, 372, 4503, 4505
27588, 2286, 541, 489, 5670
27589, 2275, 539, 412, 5656
27590, 2758, 2755, 2898, 2714
27591, 3143, 987, 1134, 3204
27592, 1958, 4714, 371, 4507
27593, 1759, 4437, 1820, 1807
27594, 1816, 4443, 1764, 1801
27595, 1671, 1613, 1605, 4375
27596, 1864, 1863, 4600, 313
27597, 4372, 1619, 1601, 1666
27598, 5074, 5669, 5072, 2246
27599, 5060, 2089, 5062, 5655
27600, 2070, 401, 4794, 5567
27601, 354, 1938, 1887, 4553
27602, 318, 1685, 4480, 4343
27603, 2708, 20, 711, 2930
27604, 791, 1076, 790, 824
27605, 853, 761, 1038, 762
27606, 793, 822, 794, 1079
27607, 765, 764, 851, 1041
27608, 1787, 329, 4417, 4565
27609, 1195, 158, 1135, 3421
27610, 2447, 4816, 2073, 5604
27611, 2273, 2228, 5635, 5010
27612, 2216, 2264, 4988, 5621
27613, 2242, 5607, 4824, 2079
27614, 5633, 5637, 5644, 5001
27615, 5609, 5605, 4815, 5616
27616, 5630, 5623, 4979, 5619
27617, 1884, 365, 321, 4505
27618, 1347, 1346, 3855, 3844
27619, 183, 4116, 1278, 5748
27620, 2607, 2486, 583, 2472
27621, 4133, 4132, 4126, 5684
27622, 4834, 4843, 2093, 5649
27623, 5663, 5027, 2250, 5036
27624, 3559, 1156, 3473, 3365
27625, 4115, 1193, 1208, 4116
27626, 3204, 1005, 3143, 989
27627, 4026, 169, 1373, 5740
27628, 5057, 2227, 2272, 5631
27629, 2215, 2263, 5048, 5617
27630, 2578, 2484, 2553, 2505
27631, 2552, 2486, 2607, 2472
27632, 3481, 1265, 4124, 3603
27633, 1885, 322, 4554, 1940
27634, 396, 4807, 2058, 5568
27635, 732, 733, 2715, 2882
27636, 2691, 2939, 677, 2669
27637, 1590, 5184, 4277, 4285
27638, 1572, 4275, 4267, 5185
27639, 394, 5215, 5457, 2344
27640, 5456, 395, 2360, 5259
27641, 4926, 2181, 5370, 5399
27642, 2713, 736, 2899, 735
27643, 1372, 1371, 3865, 3709
27644, 1208, 1193, 4115, 1192
27645, 1772, 4435, 4572, 1789
27646, 1695, 4370, 4486, 1680
27647, 4438, 1792, 1776, 4569
27648, 4377, 1683, 1699, 4483
27649, 5649, 2089, 4834, 5648
27650, 5663, 5662, 2246, 5027
27651, 226, 259, 5312, 5305
27652, 209, 248, 5367, 5374
27653, 823, 792, 1078, 793
27654, 852, 763, 1040, 764
27655, 762, 1039, 852, 763
27656, 791, 1077, 823, 792
27657, 593, 2621, 2626, 2586
27658, 519, 500, 5085, 2266
27659, 518, 494, 5082, 2257
27660, 506, 520, 2275, 5088
27661, 480, 511, 2235, 5070
27662, 2286, 513, 521, 5091
27663, 2741, 2779, 2731, 2855
27664, 1773, 4574, 4435, 1789
27665, 1696, 4488, 4370, 1680
27666, 4438, 1775, 1792, 4571
27667, 4377, 1698, 1683, 4485
27668, 1024, 3192, 3163, 3159
27669, 5632, 2441, 2142, 5002
27670, 1507, 4207, 214, 5186
27671, 1538, 5187, 225, 4233
27672, 2876, 2843, 45, 2847
27673, 2587, 586, 585, 2487
27674, 2602, 620, 573, 2538
27675, 4490, 4334, 311, 1678
27676, 2504, 2618, 2510, 2595
27677, 1024, 3192, 3159, 3201
27678, 2790, 2856, 2909, 725
27679, 554, 555, 2540, 2483
27680, 3160, 1025, 3197, 1026
27681, 1222, 924, 923, 3473
27682, 4, 547, 2515, 2456
27683, 1762, 1763, 4400, 1817
27684, 1760, 1761, 4399, 1819
27685, 1669, 1670, 4316, 1604
27686, 1667, 1668, 4317, 1602
27687, 1859, 1860, 1851, 1844
27688, 1907, 1908, 1899, 1919
27689, 4443, 4572, 4573, 1788
27690, 4486, 4375, 1679, 4487
27691, 4437, 1793, 4570, 4569
27692, 1684, 4372, 4483, 4484
27693, 5427, 5435, 1482, 5696
27694, 4977, 4973, 2221, 5622
27695, 2084, 4809, 5608, 4813
27696, 2233, 4995, 5636, 4999
27697, 3163, 3192, 3164, 3159
27698, 4847, 5066, 5645, 2281
27699, 2292, 5659, 5078, 5040
27700, 2285, 490, 5079, 5074
27701, 2274, 5062, 413, 5067
27702, 5058, 2265, 476, 5053
27703, 2234, 403, 5025, 5020
27704, 5044, 5049, 470, 2256
27705, 2558, 2498, 2496, 2511
27706, 4325, 307, 4301, 5747
27707, 5471, 2184, 4931, 5419
27708, 5418, 5470, 2105, 4854
27709, 1846, 1858, 1857, 1849
27710, 1903, 1902, 1914, 1894
27711, 5424, 1494, 5434, 5697
27712, 2064, 2065, 4796, 5509
27713, 2893, 48, 2784, 2837
27714, 5482, 452, 454, 4916
27715, 84, 3005, 909, 906
27716, 1773, 4441, 4574, 1790
27717, 1696, 4376, 4488, 1681
27718, 4436, 1791, 1775, 4571
27719, 4371, 1682, 1698, 4485
27720, 2483, 2618, 2597, 2595
27721, 3019, 24, 3017, 3020
27722, 1786, 330, 334, 4394
27723, 301, 303, 4311, 1688
27724, 1774, 4575, 4441, 1790
27725, 1697, 4489, 4376, 1681
27726, 4436, 1774, 1791, 4575
27727, 4489, 4371, 1682, 1697
27728, 1258, 3474, 3581, 1200
27729, 2085, 407, 2087, 4829
27730, 2222, 474, 2244, 4993
27731, 2086, 2243, 409, 4832
27732, 2098, 5016, 419, 2100
27733, 2790, 724, 2857, 2752
27734, 2549, 2548, 2482, 2551
27735, 575, 2578, 2629, 2545
27736, 1862, 1861, 4602, 1842
27737, 3583, 1275, 182, 1468
27738, 4498, 4506, 358, 5757
27739, 961, 807, 962, 2819
27740, 5539, 5527, 324, 4387
27741, 365, 372, 4505, 4713
27742, 5667, 5665, 5661, 5028
27743, 5651, 5653, 4835, 5647
27744, 5003, 5004, 5638, 5002
27745, 4817, 4816, 4818, 5610
27746, 4982, 4981, 4980, 5624
27747, 2487, 2587, 586, 2627
27748, 15, 557, 2544, 2609
27749, 1217, 3010, 3433, 914
27750, 2469, 2487, 2627, 2514
27751, 2163, 4983, 444, 5618
27752, 1181, 1215, 4119, 4122
27753, 583, 2628, 2607, 2576
27754, 2846, 46, 2848, 2844
27755, 2847, 2845, 45, 2856
27756, 2625, 2535, 592, 2626
27757, 3815, 1324, 3811, 1253
27758, 2747, 2895, 2781, 2793
27759, 740, 2898, 2755, 2714
27760, 2463, 2513, 2523, 2550
27761, 2496, 2522, 2562, 2511
27762, 3810, 3212, 3820, 1127
27763, 691, 581, 34, 3072
27764, 1217, 3010, 914, 3007
27765, 731, 115, 1019, 3154
27766, 2066, 4795, 5502, 2067
27767, 533, 281, 5435, 5696
27768, 3011, 24, 661, 2636
27769, 3212, 3810, 3820, 3821
27770, 5057, 5013, 5012, 5631
27771, 4991, 4990, 5048, 5617
27772, 4826, 5603, 5024, 4827
27773, 1239, 3718, 3866, 1238
27774, 532, 5434, 277, 5697
27775, 3193, 1027, 3161, 1026
27776, 2617, 2559, 2512, 2557
27777, 3017, 24, 661, 3011
27778, 185, 4155, 3818, 1288
27779, 3377, 1185, 162, 1467
27780, 5039, 5664, 2255, 5029
27781, 4846, 2099, 4836, 5650
27782, 1337, 1338, 195, 5750
27783, 3017, 661, 25, 3011
27784, 515, 5672, 2291, 2247
27785, 2280, 2090, 508, 5658
27786, 810, 2820, 964, 963
27787, 3158, 3191, 3165, 1028
27788, 1629, 1628, 4302, 4355
27789, 4457, 1725, 1724, 4385
27790, 2479, 2480, 2612, 2577
27791, 2754, 2782, 2894, 2716
27792, 3148, 3149, 19, 736
27793, 2098, 416, 5015, 2100
27794, 2086, 485, 2243, 4831
27795, 2615, 556, 15, 2504
27796, 1621, 4368, 1622, 1598
27797, 1608, 1610, 1611, 4373
27798, 538, 475, 2266, 5642
27799, 2235, 540, 402, 5614
27800, 5628, 469, 542, 2257
27801, 4973, 4977, 5626, 5622
27802, 4813, 4809, 5608, 5612
27803, 5636, 4995, 5640, 4999
27804, 5572, 485, 408, 4831
27805, 418, 416, 5015, 5571
27806, 680, 9, 18, 3045
27807, 1241, 1301, 91, 5740
27808, 4103, 193, 1128, 3264
27809, 2797, 2782, 2716, 2879
27810, 2554, 9, 2527, 2459
27811, 15, 557, 2609, 2507
27812, 5001, 5006, 5633, 5014
27813, 4984, 4979, 4992, 5619
27814, 4820, 4815, 4828, 5605
27815, 2506, 14, 576, 2610
27816, 2704, 598, 15, 2614
27817, 1320, 3802, 157, 4104
27818, 3165, 3191, 3158, 3162
27819, 2472, 2509, 582, 2553
27820, 5539, 324, 380, 4387
27821, 3191, 3158, 3200, 1028
27822, 2550, 2463, 2588, 2582
27823, 4445, 1823, 1810, 1809
27824, 1798, 1799, 1813, 4446
27825, 4384, 1733, 1734, 4467
27826, 1637, 4365, 4301, 1638
27827, 1058, 777, 838, 3175
27828, 1070, 1088, 3173, 1069
27829, 5672, 515, 5037, 2247
27830, 5658, 2090, 508, 4844
27831, 4212, 4218, 4206, 4208
27832, 4238, 4234, 4232, 4244
27833, 2460, 571, 10, 2546
27834, 2502, 2498, 2557, 2558
27835, 3774, 3779, 3718, 3866
27836, 4321, 4324, 4320, 1715
27837, 1375, 4106, 3971, 3869
27838, 2743, 2750, 2782, 2911
27839, 3204, 3143, 987, 3118
27840, 502, 2225, 5644, 2271
27841, 496, 2213, 5630, 2262
27842, 2076, 482, 2240, 5616
27843, 84, 3014, 3005, 906
27844, 523, 5108, 5432, 2310
27845, 5433, 526, 2331, 5154
27846, 945, 3048, 944, 934
27847, 10, 2460, 2546, 2526
27848, 1105, 3149, 3190, 1015
27849, 2504, 2615, 2603, 2618
27850, 406, 410, 4830, 2085
27851, 487, 473, 2222, 4994
27852, 1604, 1669, 4488, 4376
27853, 4441, 4574, 1762, 1817
27854, 4485, 1602, 4371, 1668
27855, 1761, 4571, 4436, 1819
27856, 2903, 2776, 2894, 2754
27857, 4116, 183, 1193, 5748
27858, 2163, 2453, 4980, 5618
27859, 2560, 2498, 2561, 2558
27860, 4500, 4509, 4503, 1959
27861, 2475, 2477, 2547, 2476
27862, 2733, 2732, 2872, 2731
27863, 2821, 961, 806, 960
27864, 304, 1848, 1857, 1856
27865, 1901, 1902, 333, 1913
27866, 2230, 4997, 5011, 2269
27867, 4825, 2238, 2081, 4811
27868, 4989, 2218, 4975, 2260
27869, 1156, 1158, 3473, 3365
27870, 618, 10, 571, 2546
27871, 2464, 2491, 2519, 2584
27872, 5622, 5620, 4973, 2211
27873, 5606, 5608, 2074, 4809
27874, 2223, 5634, 5636, 4995
27875, 2610, 14, 576, 2545
27876, 75, 881, 1094, 880
27877, 2538, 574, 2484, 2578
27878, 2552, 2607, 2576, 2472
27879, 2482, 2521, 2549, 2551
27880, 1859, 1858, 4606, 1845
27881, 33, 31, 970, 2816
27882, 1903, 1902, 1894, 4642
27883, 732, 733, 2882, 2881
27884, 5669, 490, 517, 5663
27885, 5649, 510, 413, 5655
27886, 1351, 1352, 3855, 3859
27887, 1121, 1108, 1110, 145
27888, 3079, 978, 103, 1126
27889, 2487, 2575, 2627, 2514
27890, 4812, 4824, 5607, 4827
27891, 4988, 4976, 4991, 5621
27892, 5010, 5013, 5635, 4998
27893, 2282, 4843, 2093, 5066
27894, 5078, 2293, 2250, 5036
27895, 1178, 3366, 1137, 3474
27896, 2778, 2859, 43, 2752
27897, 5546, 436, 434, 4874
27898, 4915, 443, 449, 5547
27899, 2929, 2874, 2732, 2798
27900, 605, 9, 2527, 2554
27901, 2911, 2750, 2894, 2887
27902, 1817, 1816, 1802, 1763
27903, 1604, 1605, 1614, 1670
27904, 1601, 1602, 1618, 1667
27905, 1820, 1819, 1806, 1760
27906, 2894, 2782, 2911, 2883
27907, 2476, 2548, 2460, 2482
27908, 2611, 2477, 2513, 2550
27909, 2523, 2513, 2477, 2550
27910, 552, 8, 548, 2675
27911, 2576, 2607, 583, 2472
27912, 542, 518, 5628, 2257
27913, 2235, 511, 540, 5614
27914, 2266, 519, 538, 5642
27915, 2714, 740, 606, 741
27916, 1869, 4616, 4496, 4495
27917, 736, 618, 19, 3148
27918, 1414, 244, 1510, 1413
27919, 1465, 256, 1466, 1539
27920, 1905, 1904, 1896, 4643
27921, 2523, 2582, 2521, 2486
27922, 2537, 590, 2622, 2624
27923, 2741, 2786, 2855, 2915
27924, 4365, 4301, 1638, 5747
27925, 2619, 14, 581, 2613
27926, 1607, 1611, 1612, 4379
27927, 1621, 1620, 4369, 1599
27928, 972, 973, 3052, 974
27929, 1907, 1906, 1918, 1898
27930, 2743, 2745, 2750, 2911
27931, 1126, 103, 3266, 3814
27932, 2599, 2557, 2508, 2462
27933, 4509, 4503, 1959, 4713
27934, 607, 606, 560, 2714
27935, 24, 3001, 894, 2636
27936, 577, 626, 2506, 2610
27937, 2609, 558, 544, 2507
27938, 3323, 166, 1468, 1209
27939, 2557, 2474, 2559, 2508
27940, 605, 9, 18, 2527
27941, 2285, 516, 512, 5089
27942, 2274, 509, 505, 5086
27943, 483, 479, 2234, 5068
27944, 5080, 493, 497, 2256
27945, 499, 503, 5083, 2265
27946, 3474, 1258, 1201, 1200
27947, 2590, 2625, 591, 2624
27948, 2822, 965, 811, 964
27949, 5613, 2284, 5018, 2075
27950, 2295, 5627, 2212, 5042
27951, 5641, 2297, 5051, 2224
27952, 1274, 3582, 182, 4114
27953, 3947, 3671, 3771, 3772
27954, 1814, 1799, 1800, 4442
27955, 4439, 1822, 1809, 1808
27956, 959, 960, 2823, 805
27957, 1586, 281, 5258, 5696
27958, 1577, 5214, 277, 5697
27959, 3803, 1321, 107, 3801
27960, 3366, 3556, 1137, 3474
27961, 2629, 622, 575, 2545
27962, 2544, 556, 15, 2615
27963, 4998, 4999, 5000, 5640
27964, 5626, 4978, 4977, 4976
27965, 5612, 4814, 4813, 4812
27966, 1051, 770, 845, 769
27967, 830, 786, 785, 1066
27968, 4572, 4573, 1764, 4443
27969, 4375, 4486, 1671, 4487
27970, 4570, 4437, 4569, 1759
27971, 4372, 4483, 4484, 1666
27972, 988, 1006, 108, 3143
27973, 2142, 439, 5562, 5548
27974, 2582, 2552, 2486, 2607
27975, 5012, 2227, 5057, 5631
27976, 5048, 4990, 2215, 5617
27977, 865, 152, 70, 862
27978, 2288, 5073, 5071, 2300
27979, 2283, 5017, 5019, 2237
27980, 5059, 5061, 2298, 2277
27981, 5041, 5043, 2294, 2259
27982, 5052, 2268, 2296, 5050
27983, 3779, 3718, 3866, 1239
27984, 582, 581, 2543, 2509
27985, 2555, 2533, 2473, 2556
27986, 2605, 2470, 2556, 2511
27987, 3176, 778, 837, 1059
27988, 2741, 2796, 2915, 2921
27989, 5031, 5661, 5672, 5665
27990, 5647, 4838, 5651, 5658
27991, 156, 1327, 3810, 3264
27992, 731, 115, 3154, 1018
27993, 2756, 733, 2882, 2715
27994, 5402, 1437, 218, 4253
27995, 5403, 4227, 205, 1417
27996, 2284, 5613, 5606, 2075
27997, 5620, 5627, 2212, 2295
27998, 5641, 5634, 2297, 2224
27999, 2225, 5009, 502, 5644
28000, 5616, 2076, 482, 4823
28001, 5630, 2213, 496, 4987
28002, 2796, 2717, 2915, 2907
28003, 1270, 3479, 1271, 4107
28004, 2286, 521, 541, 5670
28005, 520, 539, 2275, 5656
28006, 16, 690, 2833, 32
28007, 1258, 1259, 3474, 1201
28008, 5549, 4903, 448, 5566
28009, 2752, 2778, 2859, 2783
28010, 812, 966, 965, 2824
28011, 4508, 371, 4714, 4507
28012, 4843, 4847, 5066, 5645
28013, 5078, 5659, 5036, 5040
28014, 3266, 3079, 103, 1126
28015, 816, 970, 969, 2832
28016, 2228, 5635, 5013, 2273
28017, 2079, 2242, 5607, 4827
28018, 2264, 2216, 4991, 5621
28019, 3420, 3473, 1158, 3365
28020, 3474, 1178, 3366, 3421
28021, 2506, 580, 14, 2613
28022, 891, 27, 2937, 3022
28023, 958, 804, 959, 2825
28024, 4817, 4821, 2073, 5604
28025, 31, 33, 970, 817
28026, 606, 2898, 740, 2714
28027, 2558, 2496, 2562, 2511
28028, 1253, 3630, 3811, 3573
28029, 3199, 152, 2920, 862
28030, 1015, 4030, 4049, 1105
28031, 3473, 3420, 924, 3365
28032, 3015, 3433, 3010, 914
28033, 2938, 890, 77, 3438
28034, 1912, 346, 1825, 4578
28035, 319, 4495, 1867, 1704
28036, 1441, 4147, 220, 1438
28037, 1424, 1416, 213, 4158
28038, 1601, 1602, 1667, 5394
28039, 1817, 1816, 1763, 5332
28040, 336, 4444, 1821, 1808
28041, 4440, 337, 1815, 1800
28042, 4937, 5542, 455, 2190
28043, 3366, 3474, 3421, 1201
28044, 2915, 2855, 2741, 2921
28045, 3196, 3161, 727, 3160
28046, 1820, 1819, 1760, 5329
28047, 1604, 1605, 1670, 5391
28048, 574, 2484, 2578, 2505
28049, 3047, 3048, 3046, 878
28050, 2073, 4816, 4817, 5604
28051, 2565, 2493, 2494, 2468
28052, 4511, 1873, 4619, 1874
28053, 2086, 408, 485, 4831
28054, 416, 418, 5015, 2100
28055, 2838, 2912, 44, 2902
28056, 4813, 4819, 4821, 5604
28057, 4977, 4983, 4985, 5618
28058, 5005, 4999, 5632, 5007
28059, 1600, 1620, 309, 4378
28060, 2534, 586, 2587, 2627
28061, 310, 1612, 1606, 4374
28062, 2075, 5613, 403, 5020
28063, 2212, 5627, 470, 5044
28064, 476, 5641, 5053, 2224
28065, 770, 771, 1052, 844
28066, 1065, 785, 831, 784
28067, 737, 2879, 738, 2878
28068, 2506, 576, 577, 2610
28069, 894, 662, 24, 2636
28070, 2142, 5632, 5003, 5007
28071, 3118, 3204, 3143, 989
28072, 2609, 557, 558, 2507
28073, 5483, 435, 437, 4873
28074, 2554, 559, 9, 2459
28075, 5613, 5607, 5606, 2075
28076, 5627, 5621, 5620, 2212
28077, 5641, 5635, 5634, 2224
28078, 2879, 2869, 738, 2878
28079, 2796, 2761, 2871, 2921
28080, 2893, 731, 2722, 2784
28081, 533, 5258, 281, 5696
28082, 3452, 927, 3036, 3441
28083, 2881, 733, 2882, 2868
28084, 5214, 532, 277, 5697
28085, 2142, 5002, 5003, 5632
28086, 2558, 2605, 2556, 2511
28087, 2557, 2599, 2560, 2462
28088, 2560, 2557, 2498, 2558
28089, 2472, 2509, 2553, 2484
28090, 2481, 2500, 2517, 2572
28091, 2514, 2575, 2627, 2573
28092, 1880, 4510, 1881, 4580
28093, 2716, 737, 2879, 738
28094, 5631, 5013, 5012, 5000
28095, 4814, 5603, 4826, 4827
28096, 4978, 4990, 4991, 5617
28097, 3576, 159, 3812, 3269
28098, 729, 3194, 728, 3159
28099, 2758, 2776, 2840, 2755
28100, 1857, 4605, 304, 1856
28101, 967, 813, 2826, 966
28102, 3048, 3047, 3046, 946
28103, 570, 571, 617, 2713
28104, 1906, 1917, 1897, 1905
28105, 5665, 5031, 5661, 5028
28106, 4838, 5651, 4835, 5647
28107, 3495, 3576, 1260, 3816
28108, 4835, 2098, 4842, 5653
28109, 5028, 2243, 5035, 5667
28110, 803, 957, 2827, 958
28111, 2756, 733, 2904, 2882
28112, 109, 3801, 1134, 1006
28113, 3801, 4096, 109, 1134
28114, 3704, 1366, 1282, 3650
28115, 3962, 3865, 3676, 3946
28116, 450, 445, 4914, 5482
28117, 4436, 4575, 1761, 1818
28118, 1668, 1603, 4371, 4489
28119, 4489, 1669, 1603, 4376
28120, 4441, 1762, 4575, 1818
28121, 987, 1133, 1134, 3204
28122, 1023, 117, 3864, 5750
28123, 2615, 2544, 556, 2603
28124, 927, 3036, 3441, 3035
28125, 354, 1938, 4553, 4608
28126, 1889, 1959, 4509, 4715
28127, 528, 429, 2113, 4859
28128, 22, 643, 905, 2937
28129, 48, 2893, 2913, 2837
28130, 1032, 4025, 121, 5740
28131, 36, 38, 2817, 955
28132, 1245, 928, 1228, 927
28133, 738, 2879, 2716, 2754
28134, 606, 559, 560, 2714
28135, 605, 18, 9, 3045
28136, 2560, 2498, 2508, 2462
28137, 4396, 1757, 1756, 5270
28138, 5226, 4314, 1664, 1663
28139, 2713, 618, 571, 617
28140, 2843, 2845, 45, 2847
28141, 4872, 430, 432, 5546
28142, 5547, 453, 451, 4917
28143, 577, 11, 711, 2709
28144, 476, 5641, 2224, 5010
28145, 5627, 470, 4988, 2212
28146, 2075, 403, 5613, 4824
28147, 4325, 308, 307, 5747
28148, 1657, 4313, 5225, 1658
28149, 1751, 1750, 4397, 5269
28150, 2224, 5641, 5635, 5010
28151, 5613, 5607, 2075, 4824
28152, 5627, 4988, 5621, 2212
28153, 476, 504, 5641, 5010
28154, 4988, 498, 470, 5627
28155, 5613, 403, 484, 4824
28156, 2460, 10, 572, 2526
28157, 2508, 2557, 2474, 2502
28158, 625, 580, 2613, 710
28159, 2713, 2899, 617, 735
28160, 1372, 159, 3818, 3776
28161, 2800, 49, 21, 710
28162, 882, 76, 42, 2932
28163, 3802, 1135, 157, 4104
28164, 3865, 1371, 3962, 3709
28165, 2837, 2886, 2881, 732
28166, 644, 660, 2939, 2691
28167, 3810, 1327, 193, 3264
28168, 969, 815, 2830, 968
28169, 2552, 2521, 2486, 2472
28170, 2079, 5607, 4824, 4827
28171, 4988, 4991, 2216, 5621
28172, 2228, 5013, 5635, 5010
28173, 1674, 1637, 299, 4364
28174, 1766, 4466, 327, 1733
28175, 2473, 2502, 2556, 2470
28176, 4985, 2163, 4981, 5618
28177, 2618, 2483, 2510, 2595
28178, 2588, 2575, 2487, 2513
28179, 2526, 19, 10, 716
28180, 3776, 1180, 159, 1261
28181, 2163, 4980, 4981, 5618
28182, 481, 2082, 5615, 4825
28183, 2219, 5629, 495, 4989
28184, 2231, 501, 5011, 5643
28185, 733, 2868, 2904, 2882
28186, 159, 3818, 3776, 1261
28187, 2786, 2757, 2735, 2853
28188, 814, 967, 2828, 968
28189, 1374, 3872, 163, 4110
28190, 946, 3449, 3443, 935
28191, 3817, 3266, 155, 1127
28192, 873, 874, 2838, 5752
28193, 797, 952, 57, 818
28194, 117, 4183, 1361, 3864
28195, 1376, 121, 4025, 4174
28196, 2758, 607, 560, 2714
28197, 4311, 1707, 303, 4308
28198, 4394, 4391, 334, 1828
28199, 2840, 2755, 2903, 2898
28200, 2087, 4829, 4830, 2085
28201, 2222, 2244, 4994, 4993
28202, 4832, 2086, 2243, 4831
28203, 2098, 5015, 5016, 2100
28204, 3011, 893, 81, 3001
28205, 111, 2881, 868, 732
28206, 553, 680, 9, 2527
28207, 4973, 5626, 4977, 4976
28208, 5612, 4813, 4809, 4812
28209, 4998, 5640, 4995, 4999
28210, 1548, 5400, 1463, 257
28211, 5401, 1521, 1402, 252
28212, 1235, 3713, 4016, 3868
28213, 1004, 3204, 3118, 989
28214, 4054, 1412, 4069, 1413
28215, 1466, 4087, 1448, 4081
28216, 849, 3188, 766, 1043
28217, 3171, 795, 820, 1081
28218, 2190, 461, 4938, 5587
28219, 2487, 2463, 2587, 2588
28220, 3148, 3149, 3190, 19
28221, 4444, 4570, 336, 1821
28222, 4440, 337, 4573, 1815
28223, 70, 865, 1107, 864
28224, 38, 36, 800, 955
28225, 1333, 3834, 4028, 4039
28226, 4378, 309, 1600, 4484
28227, 264, 1482, 1556, 5435
28228, 1606, 310, 4374, 4487
28229, 2548, 2482, 2551, 2602
28230, 3713, 1235, 4016, 3657
28231, 2142, 439, 4876, 5562
28232, 865, 2920, 152, 862
28233, 403, 5613, 5025, 5020
28234, 490, 5669, 5079, 5074
28235, 413, 5062, 5655, 5067
28236, 5627, 5049, 470, 5044
28237, 5058, 476, 5641, 5053
28238, 5559, 5548, 441, 4880
28239, 2275, 5061, 520, 5656
28240, 5043, 5628, 518, 2257
28241, 2235, 5019, 511, 5614
28242, 521, 2286, 5073, 5670
28243, 519, 2266, 5052, 5642
28244, 910, 85, 82, 3006
28245, 581, 2543, 2509, 2505
28246, 1644, 4302, 297, 4310
28247, 4301, 300, 4323, 1651
28248, 1747, 4393, 323, 4385
28249, 2476, 2523, 2549, 2521
28250, 1765, 1814, 337, 4566
28251, 3189, 1105, 3149, 3190
28252, 5404, 212, 1500, 1415
28253, 5405, 229, 1464, 1535
28254, 788, 827, 1087, 1071
28255, 1086, 819, 796, 1084
28256, 1033, 759, 798, 973
28257, 1046, 767, 1089, 848
28258, 848, 1046, 767, 1090
28259, 798, 759, 1033, 1085
28260, 796, 819, 953, 1084
28261, 1071, 788, 827, 1088
28262, 4457, 1827, 1786, 5739
28263, 1763, 4435, 1802, 1803
28264, 1618, 1617, 4377, 1667
28265, 4876, 439, 2132, 5562
28266, 3709, 3865, 1372, 3776
28267, 1193, 4115, 183, 4116
28268, 621, 574, 2538, 2629
28269, 1706, 4355, 1688, 5744
28270, 802, 2829, 957, 956
28271, 4457, 4385, 1724, 5739
28272, 1368, 3765, 3867, 3953
28273, 4051, 1386, 4048, 5760
28274, 779, 3178, 1060, 836
28275, 1057, 776, 839, 3177
28276, 906, 82, 910, 3587
28277, 4355, 1628, 4302, 5744
28278, 2268, 2296, 5085, 5052
28279, 5073, 2288, 5091, 2300
28280, 5019, 5070, 2283, 2237
28281, 5088, 2298, 5061, 2277
28282, 5043, 5082, 2294, 2259
28283, 2613, 21, 625, 710
28284, 598, 545, 2515, 2507
28285, 193, 1323, 3810, 3264
28286, 2708, 711, 11, 2709
28287, 626, 2524, 2516, 579
28288, 364, 371, 4714, 4508
28289, 422, 468, 2104, 4971
28290, 2576, 2552, 2472, 2553
28291, 2880, 2878, 737, 2838
28292, 707, 37, 35, 2834
28293, 2514, 2627, 2469, 2573
28294, 2782, 2797, 2772, 2883
28295, 3019, 3017, 24, 3006
28296, 1500, 1414, 212, 5404
28297, 1535, 5405, 229, 1465
28298, 2111, 427, 5585, 4862
28299, 1675, 312, 1715, 4324
28300, 1672, 1607, 310, 4482
28301, 4841, 4846, 4836, 5650
28302, 5039, 5034, 5664, 5029
28303, 2937, 905, 22, 3439
28304, 1049, 3172, 1048, 53
28305, 228, 5400, 1548, 1462
28306, 207, 5401, 1403, 1521
28307, 2075, 5018, 5613, 5020
28308, 5044, 2212, 5627, 5042
28309, 5053, 5641, 5051, 2224
28310, 159, 3576, 3812, 1261
28311, 2831, 801, 955, 956
28312, 2623, 589, 2622, 2589
28313, 3818, 4155, 1372, 1288
28314, 4393, 4395, 332, 4385
28315, 4310, 4302, 305, 4312
28316, 4323, 4325, 307, 4301
28317, 2292, 5665, 5659, 5033
28318, 2281, 5645, 4840, 5651
28319, 3003, 661, 25, 3017
28320, 5045, 2261, 4987, 2217
28321, 2239, 5021, 2080, 4823
28322, 5054, 5009, 2229, 2270
28323, 1388, 4032, 1332, 4038
28324, 2894, 2782, 2750, 2911
28325, 1726, 4562, 4460, 1741
28326, 1650, 1630, 4478, 4358
28327, 2894, 2716, 2782, 2879
28328, 2900, 740, 2901, 877
28329, 4131, 231, 228, 1454
28330, 1404, 239, 207, 4191
28331, 4939, 529, 456, 2173
28332, 2472, 582, 2576, 2553
28333, 2578, 575, 2619, 2545
28334, 677, 2939, 2691, 905
28335, 1194, 1280, 82, 3268
28336, 2505, 575, 14, 2619
28337, 2588, 2611, 2575, 2513
28338, 904, 2939, 677, 905
28339, 2269, 5011, 2230, 5056
28340, 5047, 2218, 4989, 2260
28341, 5023, 2238, 2081, 4825
28342, 2504, 2615, 556, 2603
28343, 5588, 424, 2209, 4970
28344, 160, 1179, 3414, 3822
28345, 4435, 4572, 1763, 1816
28346, 4486, 1605, 1670, 4370
28347, 1760, 4569, 4438, 1820
28348, 1601, 4377, 4483, 1667
28349, 77, 2938, 3438, 889
28350, 1890, 4716, 364, 1838
28351, 1893, 1717, 365, 4718
28352, 4377, 4485, 4483, 1667
28353, 4438, 4571, 4569, 1760
28354, 1763, 4574, 4572, 4435
28355, 4488, 4486, 1670, 4370
28356, 856, 67, 881, 1111
28357, 2741, 2786, 2779, 2855
28358, 3576, 175, 1260, 3812
28359, 2575, 2487, 2587, 2588
28360, 1909, 342, 339, 1836
28361, 2578, 2538, 574, 2629
28362, 417, 4835, 4840, 5651
28363, 486, 5028, 5033, 5665
28364, 4106, 1375, 1374, 3869
28365, 2578, 574, 575, 2629
28366, 2557, 2508, 2498, 2502
28367, 3814, 4155, 1336, 1325
28368, 4017, 3872, 1374, 4110
28369, 1759, 4437, 4569, 1820
28370, 1764, 4572, 4443, 1816
28371, 4486, 1671, 1605, 4375
28372, 4483, 4372, 1601, 1666
28373, 5586, 464, 4961, 2197
28374, 194, 4155, 1393, 3814
28375, 2603, 2540, 555, 2618
28376, 326, 1740, 4384, 4406
28377, 1330, 1337, 195, 5750
28378, 2603, 555, 2504, 2618
28379, 2502, 2555, 2473, 2556
28380, 4714, 1958, 4499, 4507
28381, 931, 91, 1301, 5740
28382, 324, 379, 380, 4757
28383, 376, 377, 296, 4758
28384, 2555, 2473, 2474, 2502
28385, 2290, 5075, 2251, 5037
28386, 2094, 2279, 5063, 4844
28387, 2587, 2487, 2575, 2627
28388, 3814, 1325, 103, 1329
28389, 13, 35, 37, 2834
28390, 16, 4, 32, 2833
28391, 2487, 2463, 2588, 2513
28392, 159, 1180, 3269, 1261
28393, 2576, 583, 582, 2472
28394, 2560, 2508, 2557, 2462
28395, 1802, 1817, 1763, 1803
28396, 1617, 1618, 1602, 1667
28397, 546, 4, 32, 2703
28398, 37, 13, 710, 2705
28399, 4840, 2281, 5651, 2091
28400, 2248, 5665, 2292, 5033
28401, 880, 137, 881, 1094
28402, 193, 4103, 1323, 3264
28403, 1223, 77, 3438, 889
28404, 3954, 1235, 3657, 4016
28405, 2920, 2910, 3199, 862
28406, 867, 1098, 140, 5700
28407, 1331, 1388, 1332, 4038
28408, 4026, 1240, 1241, 1300
28409, 1338, 3858, 1339, 1359
28410, 2183, 2198, 4958, 4959
28411, 2112, 2403, 4860, 4859
28412, 2498, 2508, 2557, 2560
28413, 296, 376, 4304, 5526
28414, 4406, 4384, 335, 4408
28415, 2484, 573, 574, 2538
28416, 4863, 2111, 428, 5553
28417, 2578, 575, 574, 2505
28418, 4028, 1332, 3833, 1333
28419, 137, 880, 881, 74
28420, 5066, 4847, 2092, 2281
28421, 2249, 2292, 5078, 5040
28422, 1105, 3148, 1015, 3190
28423, 5057, 2228, 5013, 2273
28424, 2242, 2079, 5024, 4827
28425, 4991, 5048, 2216, 2264
28426, 288, 262, 4386, 4290
28427, 4259, 270, 249, 4303
28428, 1605, 1614, 1670, 4370
28429, 1763, 4435, 1816, 1802
28430, 1601, 1618, 4377, 1667
28431, 1806, 1760, 4438, 1820
28432, 4819, 2073, 4821, 5604
28433, 2252, 5077, 2289, 5038
28434, 2095, 5065, 2278, 4845
28435, 2755, 2776, 2840, 2903
28436, 2516, 626, 579, 2706
28437, 2903, 2755, 2776, 2754
28438, 545, 546, 598, 2456
28439, 1786, 334, 330, 1828
28440, 303, 301, 1707, 1688
28441, 3834, 4028, 3833, 1333
28442, 2447, 401, 397, 2073
28443, 5632, 2142, 5005, 5007
28444, 1373, 3168, 120, 1031
28445, 1215, 1182, 4123, 4122
28446, 1881, 4498, 358, 4595
28447, 1873, 4636, 361, 4497
28448, 3269, 3576, 159, 1261
28449, 1250, 232, 172, 1470
28450, 5337, 4851, 381, 2101
28451, 1259, 157, 1135, 4104
28452, 1467, 162, 3377, 4109
28453, 5080, 5627, 2295, 5042
28454, 5060, 2299, 5655, 5086
28455, 5072, 5089, 2301, 5669
28456, 5018, 5068, 2284, 5613
28457, 5051, 5083, 2297, 5641
28458, 5645, 4840, 4847, 2281
28459, 5033, 5659, 2292, 5040
28460, 1448, 4087, 149, 4081
28461, 1412, 4069, 152, 4054
28462, 1374, 4017, 4106, 3869
28463, 1420, 214, 1429, 4165
28464, 1446, 4154, 225, 1451
28465, 1308, 3786, 3793, 3792
28466, 3452, 927, 3441, 1228
28467, 2441, 441, 439, 2142
28468, 2163, 444, 4907, 5549
28469, 2527, 9, 553, 2459
28470, 780, 3180, 1061, 835
28471, 5552, 4962, 465, 2197
28472, 775, 840, 1056, 3179
28473, 2505, 2578, 575, 2619
28474, 5404, 1500, 241, 1415
28475, 5405, 1464, 255, 1535
28476, 3616, 88, 3018, 3007
28477, 3323, 1468, 4114, 1209
28478, 372, 4505, 4498, 5757
28479, 927, 3441, 926, 3035
28480, 1323, 4103, 1128, 3264
28481, 906, 3268, 82, 3587
28482, 4983, 2163, 4985, 5618
28483, 1237, 1246, 3760, 1236
28484, 2404, 4936, 4939, 2191
28485, 2104, 2210, 4968, 4971
28486, 2619, 575, 14, 2545
28487, 10, 618, 736, 3148
28488, 2513, 2463, 2588, 2550
28489, 1245, 927, 1228, 1227
28490, 3630, 174, 3811, 3816
28491, 238, 1485, 1499, 236
28492, 1637, 299, 4322, 1674
28493, 298, 1629, 4309, 1655
28494, 4392, 328, 1749, 1725
28495, 429, 528, 2403, 4859
28496, 11, 578, 2524, 711
28497, 5083, 2297, 2267, 5051
28498, 5089, 2287, 5072, 2301
28499, 5086, 5060, 2299, 2276
28500, 5068, 2236, 5018, 2284
28501, 2295, 5080, 5042, 2258
28502, 380, 356, 324, 4757
28503, 293, 376, 296, 4758
28504, 581, 2543, 2505, 2619
28505, 313, 312, 1715, 1864
28506, 417, 5651, 4840, 5645
28507, 486, 5665, 5033, 5659
28508, 5399, 2181, 375, 4925
28509, 5549, 444, 4907, 5563
28510, 4114, 3424, 3323, 1209
28511, 865, 142, 1107, 864
28512, 218, 1550, 5402, 4253
28513, 205, 4227, 5403, 1524
28514, 882, 19, 3148, 3190
28515, 731, 3154, 47, 1018
28516, 3424, 1192, 1208, 4112
28517, 1073, 55, 1074, 3170
28518, 3187, 51, 1035, 1036
28519, 3953, 3661, 1368, 3765
28520, 1227, 927, 3441, 926
28521, 4498, 4595, 1881, 5757
28522, 3851, 110, 112, 1008
28523, 5424, 266, 1558, 1494
28524, 865, 142, 864, 71
28525, 951, 57, 952, 3051
28526, 1045, 1090, 3188, 1044
28527, 1083, 1086, 3171, 1082
28528, 5669, 517, 490, 5079
28529, 5049, 470, 498, 5627
28530, 5613, 484, 403, 5025
28531, 5655, 510, 413, 5067
28532, 504, 476, 5641, 5058
28533, 2506, 580, 625, 2516
28534, 1733, 327, 1766, 4405
28535, 787, 3173, 1068, 828
28536, 4407, 1836, 339, 341
28537, 2504, 556, 555, 2603
28538, 236, 1485, 204, 5716
28539, 3496, 3009, 88, 913
28540, 2198, 4958, 466, 2183
28541, 401, 2447, 4816, 2073
28542, 2613, 580, 21, 710
28543, 3020, 3011, 81, 3001
28544, 1121, 2926, 1096, 139
28545, 882, 3148, 19, 716
28546, 66, 147, 1092, 5676
28547, 73, 879, 950, 2927
28548, 2878, 2838, 874, 5751
28549, 2453, 448, 444, 2163
28550, 2793, 2749, 2890, 2787
28551, 72, 866, 2926, 1096
28552, 2142, 441, 5548, 4880
28553, 2142, 2441, 441, 5002
28554, 732, 868, 869, 2881
28555, 97, 5725, 948, 5752
28556, 1548, 5400, 257, 1462
28557, 1521, 5401, 1403, 252
28558, 88, 3018, 3496, 3616
28559, 866, 142, 71, 864
28560, 74, 137, 879, 881
28561, 332, 331, 323, 4385
28562, 2403, 2112, 429, 4859
28563, 2453, 4980, 448, 2163
28564, 5011, 501, 478, 5056
28565, 5023, 405, 481, 4825
28566, 5047, 472, 495, 4989
28567, 910, 82, 3004, 3006
28568, 3812, 3818, 159, 1261
28569, 546, 4, 598, 2456
28570, 320, 322, 1689, 5528
28571, 2515, 545, 598, 2456
28572, 910, 82, 1280, 3587
28573, 314, 312, 313, 1863
28574, 2513, 2588, 2611, 2550
28575, 1500, 241, 1414, 5404
28576, 1535, 255, 5405, 1465
28577, 556, 15, 557, 2544
28578, 1760, 4438, 4571, 1819
28579, 4488, 1670, 1604, 4370
28580, 112, 3851, 1008, 1009
28581, 194, 4155, 3814, 1325
28582, 2515, 598, 4, 2456
28583, 4595, 4498, 358, 5757
28584, 3045, 9, 605, 741
28585, 4362, 4473, 1713, 1842
28586, 31, 33, 2833, 2816
28587, 3182, 1062, 781, 834
28588, 841, 774, 3181, 1055
28589, 576, 14, 575, 2545
28590, 579, 13, 2516, 2706
28591, 2524, 578, 12, 711
28592, 947, 3049, 3047, 936
28593, 5655, 509, 510, 5067
28594, 5669, 516, 517, 5079
28595, 5613, 483, 484, 5025
28596, 5641, 503, 504, 5058
28597, 5049, 498, 497, 5627
28598, 2817, 38, 36, 2834
28599, 625, 580, 710, 2706
28600, 327, 1733, 1740, 4405
28601, 3018, 3009, 88, 3496
28602, 306, 305, 297, 4302
28603, 1235, 3713, 3868, 1234
28604, 3045, 605, 3047, 741
28605, 2997, 3012, 80, 899
28606, 4993, 474, 488, 5492
28607, 407, 411, 4829, 5493
28608, 1712, 4361, 4474, 1843
28609, 1833, 1897, 4558, 4463
28610, 18, 605, 3047, 3045
28611, 305, 297, 5223, 1672
28612, 1758, 332, 323, 5267
28613, 5529, 345, 354, 1783
28614, 869, 732, 2881, 733
28615, 419, 417, 5493, 5016
28616, 409, 486, 5492, 4832
28617, 3268, 1280, 82, 3587
28618, 5266, 335, 326, 1765
28619, 1665, 307, 300, 5222
28620, 937, 93, 737, 5751
28621, 974, 973, 3052, 50
28622, 14, 2619, 2545, 2613
28623, 3441, 927, 1227, 1228
28624, 3448, 3032, 3452, 928
28625, 4939, 456, 529, 2404
28626, 262, 227, 288, 259
28627, 248, 249, 208, 270
28628, 4497, 371, 4508, 4507
28629, 3466, 3471, 1229, 3470
28630, 1008, 3851, 111, 1009
28631, 1069, 1088, 3173, 54
28632, 3148, 10, 19, 716
28633, 4464, 1898, 1834, 4559
28634, 3830, 4039, 1334, 4035
28635, 4407, 1836, 341, 4409
28636, 1745, 4559, 4464, 1731
28637, 1646, 1635, 4362, 4473
28638, 1841, 4363, 4473, 1713
28639, 929, 3448, 1229, 928
28640, 4840, 2092, 4847, 2281
28641, 2292, 2249, 5033, 5040
28642, 1894, 4460, 1829, 4562
28643, 1846, 4478, 1708, 4358
28644, 323, 331, 332, 1758
28645, 300, 308, 307, 1665
28646, 4460, 4556, 1894, 1830
28647, 4358, 1709, 1846, 4476
28648, 288, 260, 261, 4295
28649, 250, 251, 270, 4258
28650, 1329, 4175, 1325, 103
28651, 3495, 1260, 174, 3816
28652, 1833, 1898, 4464, 4558
28653, 1842, 4362, 4474, 1712
28654, 4123, 3409, 1182, 1215
28655, 741, 605, 878, 2900
28656, 4463, 4558, 1730, 1744
28657, 4474, 1634, 1647, 4361
28658, 618, 19, 10, 2526
28659, 3448, 929, 3032, 928
28660, 61, 1086, 819, 796
28661, 827, 1087, 62, 788
28662, 798, 58, 759, 1085
28663, 767, 65, 848, 1090
28664, 767, 64, 1089, 848
28665, 798, 759, 59, 973
28666, 788, 63, 827, 1088
28667, 819, 953, 60, 796
28668, 1325, 4175, 4155, 1336
28669, 4560, 4463, 1897, 1832
28670, 1711, 4477, 4361, 1843
28671, 4360, 1648, 1633, 4477
28672, 1729, 4462, 4560, 1743
28673, 3452, 1229, 3448, 928
28674, 299, 4322, 1651, 1637
28675, 328, 4392, 1747, 1725
28676, 298, 1629, 1644, 4309
28677, 3814, 4155, 1393, 1336
28678, 4359, 1649, 1632, 4475
28679, 1728, 4461, 4557, 1742
28680, 4358, 1650, 1631, 4476
28681, 4460, 4556, 1727, 1741
28682, 1263, 177, 4121, 3643
28683, 1335, 3830, 1334, 4035
28684, 4324, 312, 1715, 314
28685, 468, 2210, 2104, 4971
28686, 4939, 456, 2404, 2191
28687, 531, 532, 536, 2434
28688, 533, 534, 537, 2436
28689, 104, 3823, 979, 3825
28690, 138, 98, 5673, 3800
28691, 139, 144, 5674, 4053
28692, 618, 10, 19, 3148
28693, 335, 338, 326, 1765
28694, 249, 251, 208, 270
28695, 260, 227, 288, 262
28696, 297, 305, 306, 1672
28697, 1834, 1899, 4465, 4559
28698, 1009, 112, 3851, 3848
28699, 1063, 833, 782, 3184
28700, 842, 773, 3183, 1054
28701, 946, 936, 3047, 935
28702, 710, 580, 13, 2706
28703, 4473, 1645, 1635, 4363
28704, 4465, 4559, 1746, 1731
28705, 3813, 3814, 3823, 1329
28706, 2903, 739, 2901, 2898
28707, 1012, 3189, 1102, 1013
28708, 3052, 758, 799, 971
28709, 5033, 486, 5659, 5040
28710, 417, 4840, 4847, 5645
28711, 734, 2897, 2764, 2904
28712, 4476, 1649, 1631, 4359
28713, 1742, 4461, 4556, 1727
28714, 4039, 1334, 3834, 3830
28715, 580, 625, 2516, 2706
28716, 4464, 4558, 1745, 1730
28717, 4474, 1646, 1634, 4362
28718, 314, 4324, 4321, 1715
28719, 3047, 947, 936, 946
28720, 734, 2908, 2897, 2904
28721, 2756, 734, 2764, 2904
28722, 4462, 4557, 1743, 1728
28723, 4360, 1632, 1648, 4475
28724, 1647, 1633, 4477, 4361
28725, 1729, 4560, 4463, 1744
28726, 32, 689, 690, 2833
28727, 3848, 111, 3851, 1009
28728, 339, 341, 342, 1908
28729, 544, 558, 2455, 2525
28730, 2869, 2903, 739, 2901
28731, 174, 3630, 3495, 3816
28732, 2755, 739, 2898, 740
28733, 2516, 13, 580, 2706
28734, 3452, 3032, 3036, 928
28735, 18, 3047, 3049, 3045
28736, 4115, 1208, 1192, 4112
28737, 2869, 2903, 2754, 739
28738, 154, 145, 153, 1110
28739, 147, 134, 148, 1092
28740, 933, 934, 944, 3048
28741, 31, 33, 690, 2833
28742, 1332, 1389, 4032, 1388
28743, 234, 1556, 1482, 5427
28744, 3004, 907, 908, 3006
28745, 1012, 1102, 1101, 4029
28746, 2868, 2908, 734, 2904
28747, 159, 1179, 3826, 3812
28748, 1645, 1636, 4363, 4479
28749, 4465, 4561, 1732, 1746
28750, 2947, 3013, 80, 2997
28751, 1128, 4103, 1323, 3824
28752, 4847, 4843, 411, 5645
28753, 5036, 5659, 488, 5040
28754, 1236, 3760, 1237, 3905
28755, 1333, 4028, 1390, 4039
28756, 3826, 3813, 159, 3812
28757, 908, 907, 3003, 3006
28758, 96, 941, 948, 5725
28759, 3012, 80, 3013, 2997
28760, 2908, 2764, 735, 734
28761, 948, 5725, 941, 5752
28762, 153, 141, 1110, 145
28763, 1392, 1336, 1335, 4043
28764, 739, 2903, 2755, 2898
28765, 739, 2901, 2898, 740
28766, 3657, 3760, 1236, 3954
28767, 3186, 783, 832, 1064
28768, 3185, 1053, 843, 772
28769, 893, 3013, 80, 2947
28770, 3149, 872, 2899, 871
28771, 37, 707, 708, 2834
28772, 3813, 3818, 159, 3812
28773, 1246, 1236, 3657, 3760
28774, 707, 36, 38, 2834
28775, 353, 350, 364, 4508
28776, 68, 153, 1110, 154
28777, 147, 66, 1092, 148
28778, 92, 937, 5751, 5752
28779, 3045, 3047, 3049, 936
28780, 3661, 3912, 1369, 3728
28781, 236, 1483, 5680, 5716
28782, 315, 321, 365, 4505
28783, 1370, 1369, 3912, 3728
28784, 2754, 2903, 2755, 739
28785, 92, 940, 937, 5752
28786, 1082, 1086, 3171, 56
28787, 1044, 1090, 3188, 52
28788, 1228, 1229, 3452, 928
28789, 3760, 1236, 3954, 3905
28790, 735, 2899, 871, 3149
28791, 2908, 2897, 2764, 734
28792, 1286, 3728, 1370, 3705
28793, 1014, 3189, 1013, 1103
28794, 1336, 1392, 1393, 4043
28795, 1371, 1287, 3709, 3776
28796, 1370, 1371, 1287, 3705
28797, 2868, 733, 869, 2881
28798, 261, 1584, 280, 4295
28799, 250, 1578, 4258, 278
28800, 4043, 1335, 1392, 4035
28801, 2754, 738, 2869, 739
28802, 1287, 1371, 1372, 3776
28803, 1239, 3466, 3467, 1238
28804, 1238, 3467, 1248, 3466
28805, 3189, 1014, 1104, 1103
28806, 1369, 1284, 3661, 1285
28807, 31, 689, 690, 3054
28808, 1230, 930, 929, 3466
28809, 4409, 1836, 341, 4404
28810, 872, 3149, 2899, 736
28811, 1015, 3149, 3190, 3148
28812, 54, 63, 1088, 3173
28813, 1013, 3189, 1102, 1103
28814, 3467, 930, 1230, 3466
28815, 4156, 1389, 1332, 1388
28816, 3953, 3661, 3912, 1369
28817, 910, 3004, 82, 906
28818, 1287, 1372, 1288, 3776
28819, 979, 3823, 103, 3825
28820, 868, 113, 867, 1010
28821, 3466, 1247, 1248, 1237
28822, 210, 4069, 1412, 1413
28823, 1448, 223, 1466, 4081
28824, 932, 92, 937, 5751
28825, 4393, 332, 323, 4385
28826, 307, 300, 4323, 4301
28827, 4302, 305, 297, 4310
28828, 1237, 1238, 1248, 3466
28829, 2926, 1121, 1096, 866
28830, 234, 1556, 5427, 263
28831, 237, 266, 5424, 1494
28832, 4384, 335, 326, 4406
28833, 3470, 3467, 1230, 3466
28834, 59, 50, 3052, 973
28835, 3466, 1247, 3470, 1248
28836, 3045, 3046, 741, 3047
28837, 146, 69, 1109, 1096
28838, 67, 135, 1093, 950
28839, 1483, 5716, 204, 5760
28840, 3046, 936, 935, 3047
28841, 3823, 3826, 3813, 1329
28842, 708, 38, 707, 3053
28843, 3470, 1248, 3467, 3466
28844, 1010, 1337, 113, 5699
28845, 98, 138, 5673, 1384
28846, 144, 139, 5674, 1395
28847, 1121, 153, 4056, 141
28848, 1111, 147, 96, 4089
28849, 3823, 1328, 3826, 1329
28850, 168, 172, 232, 1252
28851, 135, 134, 98, 1091
28852, 145, 146, 139, 1108
28853, 944, 3442, 933, 3048
28854, 1225, 3472, 170, 1243
28855, 925, 3472, 170, 1225
28856, 3046, 740, 2900, 877
28857, 103, 3814, 3823, 979
28858, 943, 942, 3450, 5751
28859, 5673, 138, 3800, 1319
28860, 144, 1394, 5674, 4053
28861, 1108, 69, 146, 1096
28862, 1091, 135, 67, 950
28863, 605, 878, 3047, 741
28864, 204, 1483, 236, 5716
28865, 170, 1241, 925, 1225
28866, 3468, 170, 1240, 1243
28867, 3036, 927, 3452, 928
28868, 881, 856, 1111, 66
28869, 134, 135, 147, 1383
28870, 146, 145, 153, 1396
28871, 2073, 401, 397, 5545
28872, 1371, 1287, 3705, 3709
28873, 1121, 139, 1098, 5700
28874, 3468, 1225, 170, 1243
28875, 168, 232, 172, 1250
28876, 448, 444, 2163, 5549
28877, 1333, 1334, 3834, 4039
28878, 3045, 3046, 3047, 936
28879, 5673, 147, 98, 1384
28880, 153, 5674, 139, 1395
28881, 2878, 874, 875, 5751
28882, 1225, 170, 1241, 3468
28883, 439, 441, 5548, 2142
28884, 1499, 240, 236, 1485
28885, 1482, 5427, 1556, 5435
28886, 5424, 1558, 5434, 1494
28887, 1090, 52, 65, 3188
28888, 3171, 61, 56, 1086
28889, 907, 3004, 82, 3006
28890, 3657, 1236, 1235, 3954
28891, 735, 736, 2899, 3149
28892, 147, 148, 134, 1383
28893, 154, 153, 145, 1396
28894, 3452, 927, 1228, 928
28895, 486, 488, 5659, 5040
28896, 411, 417, 4847, 5645
28897, 3825, 3823, 103, 1329
28898, 1240, 1241, 170, 3468
28899, 18, 605, 878, 3047
28900, 1282, 1338, 197, 1359
28901, 532, 265, 277, 5434
28902, 533, 281, 264, 5435
28903, 1369, 1285, 3661, 3728
28904, 938, 93, 3793, 3786
28905, 3823, 3814, 103, 1329
28906, 1229, 3466, 929, 928
28907, 3046, 740, 741, 2900
28908, 4035, 4039, 1334, 1391
28909, 94, 939, 938, 3786
28910, 1328, 3823, 3825, 1329
28911, 3784, 1240, 170, 1243
28912, 938, 3793, 94, 3786
28913, 741, 878, 3046, 2900
28914, 878, 3046, 2900, 877
28915, 100, 951, 954, 3051
28916, 3953, 3661, 1369, 1368
28917, 3170, 1073, 130, 1072
28918, 122, 1035, 1034, 3187
28919, 1121, 1098, 141, 5700
28920, 1836, 342, 341, 4404
28921, 33, 31, 3054, 817
28922, 800, 36, 38, 3053
28923, 937, 92, 3785, 1017
28924, 3046, 946, 3047, 935
28925, 1093, 98, 135, 1384
28926, 1395, 139, 146, 1109
28927, 1048, 126, 3172, 1047
28928, 943, 933, 3442, 3048
28929, 4321, 313, 314, 1715
28930, 937, 940, 92, 1017
28931, 690, 33, 31, 3054
28932, 3003, 24, 661, 3017
28933, 249, 250, 251, 270
28934, 261, 260, 288, 262
28935, 3784, 170, 1240, 1233
28936, 3442, 944, 943, 3048
28937, 1481, 1251, 173, 1252
28938, 1287, 1286, 1370, 3705
28939, 135, 98, 147, 1384
28940, 146, 153, 139, 1395
28941, 707, 38, 36, 3053
28942, 3046, 3047, 878, 741
28943, 870, 2908, 734, 2868
28944, 159, 3813, 3826, 1329
28945, 3149, 872, 871, 3189
28946, 4391, 333, 334, 1828
28947, 304, 303, 1707, 4308
28948, 140, 1098, 1097, 5700
28949, 1014, 3189, 3149, 1013
28950, 1388, 1332, 4156, 1331
28951, 1372, 4155, 1371, 1287
28952, 5673, 949, 97, 1319
28953, 5674, 1394, 140, 1097
28954, 342, 341, 339, 1836
28955, 1288, 4155, 1372, 1287
28956, 135, 1091, 98, 950
28957, 1108, 146, 139, 1096
28958, 4175, 1372, 4155, 1371
28959, 313, 312, 314, 1715
28960, 135, 134, 147, 98
28961, 145, 146, 153, 139
28962, 690, 689, 32, 3054
28963, 951, 100, 57, 3051
28964, 1335, 1336, 1392, 4155
28965, 1287, 1335, 4175, 1286
28966, 4175, 1370, 1371, 1287
28967, 1393, 1392, 1336, 4155
28968, 130, 55, 1073, 3170
28969, 1035, 122, 51, 3187
28970, 708, 707, 37, 3053
28971, 1096, 146, 139, 1109
28972, 1093, 135, 98, 950
28973, 4295, 1584, 280, 1583
28974, 4258, 1578, 1560, 278
28975, 3172, 53, 126, 1048
28976, 2435, 536, 532, 2434
28977, 2436, 537, 533, 2437
28978, 236, 240, 204, 1485
28979, 1335, 4175, 1336, 4155
28980, 138, 98, 136, 1384
28981, 144, 139, 1395, 143
28982, 1578, 5401, 267, 1560
28983, 1584, 1583, 279, 5400
28984, 1384, 98, 136, 1093
28985, 139, 1395, 143, 1109
28986, 3054, 32, 690, 3050
28987, 3800, 949, 5673, 1319
28988, 1097, 5674, 1394, 4053
28989, 1578, 278, 5401, 1560
28990, 280, 1583, 1584, 5400
28991, 1287, 1335, 4155, 4175
28992, 1470, 232, 172, 1252
28993, 1370, 4175, 1286, 1287
28994, 1559, 1578, 267, 1560
28995, 1591, 1583, 279, 1584
28996, 139, 143, 1096, 1109
28997, 1093, 98, 136, 950
28998, 4175, 1371, 4155, 1287
28999, 172, 233, 1252, 1251
29000, 1481, 233, 1251, 1252
29001, 233, 172, 1252, 1470
29002, 236, 204, 240, 1483
29003, 235, 5675, 1483, 5680
29004, 1339, 197, 1338, 1359
29005, 1240, 170, 1241, 1300
29006, 953, 57, 100, 3051
29007, 3170, 130, 55, 1087
29008, 3187, 122, 51, 1085
29009, 3172, 126, 53, 1089
29010, 60, 57, 953, 3051
29011, 3187, 51, 58, 1085
29012, 3170, 55, 62, 1087
29013, 53, 64, 3172, 1089
29014, 948, 147, 98, 5673
29015, 236, 1483, 5675, 5680
29016, 2434, 2435, 536, 2438
29017, 537, 2436, 2439, 2437
29018, 236, 238, 5675, 1499
29019, 5674, 153, 139, 1098
29020, 235, 1557, 5675, 1484
29021, 236, 5675, 1484, 5680
29022, 236, 1483, 1499, 5675
29023, 949, 97, 948, 5673
29024, 1483, 240, 236, 1499
29025, 530, 2435, 2434, 2438
29026, 2439, 2436, 535, 2437
29027, 238, 236, 5675, 1484
29028, 140, 5674, 1097, 1098
29029, 5675, 1557, 238, 1484
29030, 5675, 235, 1484, 5680
29031, 1053, 1054, 3183, 772
29032, 788, 129, 54, 1088
29033, 773, 3183, 772, 842
29034, 788, 54, 63, 1088
29035, 779, 3176, 778, 837
29036, 342, 1899, 4561, 1835
29037, 136, 67, 73, 1095
29038, 149, 1111, 857, 881
29039, 1121, 862, 68, 864
29040, 864, 152, 862, 70
29041, 72, 866, 69, 1106
29042, 210, 244, 5404, 1413
29043, 1414, 241, 244, 5404
29044, 707, 758, 37, 3053
29045, 707, 758, 3053, 36
29046, 1059, 1060, 3176, 779
29047, 1829, 1828, 333, 4459
29048, 1708, 1707, 4357, 304
29049, 4557, 1743, 4560, 4462
29050, 4461, 1831, 4462, 4557
29051, 4556, 1894, 4562, 4460
29052, 1894, 333, 4562, 1829
29053, 1650, 298, 4478, 1630
29054, 1833, 1834, 4464, 1898
29055, 1898, 4558, 4559, 4464
29056, 1899, 4559, 4561, 4465
29057, 1746, 327, 4561, 1732
29058, 4465, 1835, 4466, 4561
29059, 4464, 1834, 4465, 4559
29060, 1898, 1897, 4558, 1833
29061, 4462, 1832, 4463, 4560
29062, 4463, 1833, 4464, 4558
29063, 1896, 1897, 1905, 1832
29064, 1832, 1833, 4463, 1897
29065, 4460, 1830, 4461, 4556
29066, 4457, 1828, 4459, 1749
29067, 1895, 1894, 4556, 1830
29068, 1897, 1896, 4560, 1832
29069, 1896, 1895, 4557, 1831
29070, 1895, 1894, 1830, 1903
29071, 1743, 1744, 4560, 1729
29072, 1727, 1726, 4460, 1741
29073, 1829, 1830, 4460, 1894
29074, 4459, 1829, 4460, 4562
29075, 4457, 4459, 1725, 1749
29076, 328, 1741, 4562, 1726
29077, 1744, 4558, 4560, 4463
29078, 1728, 1727, 4461, 1742
29079, 1742, 1743, 4557, 1728
29080, 1741, 4556, 4562, 4460
29081, 1741, 1742, 4556, 1727
29082, 4558, 1897, 4560, 4463
29083, 1745, 1746, 4559, 1731
29084, 1744, 1745, 4558, 1730
29085, 834, 781, 3182, 782
29086, 1068, 54, 3173, 787
29087, 1087, 130, 55, 788
29088, 55, 62, 1087, 788
29089, 829, 1066, 1067, 786
29090, 828, 1067, 1068, 787
29091, 1062, 3182, 781, 782
29092, 781, 3180, 1061, 780
29093, 783, 782, 833, 3184
29094, 781, 3180, 780, 835
29095, 783, 1063, 782, 3184
29096, 784, 783, 832, 3186
29097, 3186, 784, 783, 1064
29098, 1064, 1065, 3186, 784
29099, 1063, 1064, 3184, 783
29100, 1061, 1062, 3180, 781
29101, 3176, 779, 836, 837
29102, 1060, 1061, 3178, 780
29103, 1060, 780, 3178, 779
29104, 779, 780, 3178, 836
29105, 1057, 1058, 3175, 776
29106, 3176, 779, 778, 1059
29107, 170, 1235, 1234, 5679
29108, 1231, 915, 3020, 89
29109, 1249, 912, 86, 911
29110, 1236, 1235, 170, 5679
29111, 826, 1074, 1075, 789
29112, 820, 1080, 1081, 795
29113, 81, 1231, 915, 3020
29114, 56, 795, 3171, 1081
29115, 1081, 3171, 56, 1082
29116, 953, 100, 57, 796
29117, 953, 57, 60, 796
29118, 1086, 61, 56, 796
29119, 56, 133, 1086, 796
29120, 952, 32, 3054, 3050
29121, 797, 3054, 33, 3050
29122, 152, 864, 862, 1121
29123, 220, 1439, 4149, 1440
29124, 227, 257, 5400, 1462
29125, 261, 1584, 4295, 1591
29126, 1582, 5400, 1583, 260
29127, 257, 1549, 5400, 1463
29128, 226, 1454, 228, 231
29129, 1835, 1836, 4466, 342
29130, 255, 1534, 1464, 5405
29131, 219, 1533, 5407, 1534
29132, 223, 256, 1466, 5405
29133, 1540, 256, 223, 5405
29134, 5405, 255, 256, 1465
29135, 4154, 1446, 1447, 1451
29136, 220, 4149, 4147, 1440
29137, 233, 1478, 1250, 1470
29138, 928, 170, 1245, 3466
29139, 98, 873, 2927, 949
29140, 1111, 66, 857, 881
29141, 3048, 3046, 878, 877
29142, 1010, 3189, 113, 1011
29143, 879, 73, 67, 1095
29144, 949, 873, 2927, 97
29145, 879, 137, 1095, 881
29146, 881, 857, 149, 75
29147, 1447, 187, 4146, 224
29148, 113, 3189, 870, 1098
29149, 197, 1284, 1283, 1367
29150, 4175, 1284, 1369, 1285
29151, 206, 1501, 5406, 1502
29152, 870, 113, 1098, 869
29153, 1058, 1059, 3174, 778
29154, 864, 69, 866, 1106
29155, 626, 2524, 579, 20
29156, 170, 928, 1245, 927
29157, 72, 69, 143, 1106
29158, 864, 866, 142, 1106
29159, 1011, 1100, 1098, 1099
29160, 113, 3189, 1098, 1011
29161, 1010, 3149, 3189, 1012
29162, 1111, 147, 66, 5676
29163, 186, 1430, 4157, 215
29164, 1430, 1420, 1429, 4165
29165, 869, 113, 1098, 868
29166, 153, 1121, 68, 1110
29167, 241, 5404, 1415, 1501
29168, 244, 210, 5404, 1516
29169, 1632, 1633, 4360, 1648
29170, 4473, 1841, 4479, 4363
29171, 1404, 209, 207, 239
29172, 252, 208, 5401, 1403
29173, 1525, 252, 5401, 1402
29174, 1560, 1566, 5401, 267
29175, 1524, 1525, 5403, 205
29176, 1843, 4474, 4477, 4361
29177, 103, 4175, 1325, 1336
29178, 1423, 216, 4160, 1431
29179, 213, 4160, 1423, 4158
29180, 1424, 1423, 4158, 213
29181, 1431, 213, 4160, 1423
29182, 872, 3149, 19, 3189
29183, 2524, 20, 711, 579
29184, 50, 758, 3052, 971
29185, 759, 102, 50, 973
29186, 759, 50, 59, 973
29187, 759, 58, 51, 1085
29188, 51, 122, 759, 1085
29189, 855, 1036, 1037, 760
29190, 1327, 1128, 193, 3264
29191, 1288, 175, 3818, 1299
29192, 1393, 1326, 194, 3814
29193, 155, 1393, 3814, 1326
29194, 1327, 156, 1128, 3264
29195, 1299, 1288, 185, 3818
29196, 773, 772, 3183, 1054
29197, 841, 774, 773, 3181
29198, 778, 837, 3174, 777
29199, 3177, 776, 839, 775
29200, 777, 837, 3174, 838
29201, 776, 839, 838, 3175
29202, 776, 838, 777, 3175
29203, 777, 1058, 776, 3175
29204, 3177, 1057, 776, 775
29205, 3179, 1056, 775, 774
29206, 843, 771, 3185, 772
29207, 1053, 3185, 771, 772
29208, 1054, 1055, 3181, 773
29209, 775, 840, 3179, 774
29210, 3181, 774, 773, 1055
29211, 1052, 1053, 3185, 771
29212, 846, 1050, 1051, 769
29213, 1050, 847, 1049, 768
29214, 1089, 126, 53, 767
29215, 53, 64, 1089, 767
29216, 767, 125, 52, 1090
29217, 767, 52, 65, 1090
29218, 3188, 52, 766, 1043
29219, 3188, 1044, 52, 1043
29220, 1335, 1285, 1286, 4156
29221, 849, 1042, 1043, 766
29222, 1648, 4475, 4477, 4360
29223, 1731, 1730, 4464, 1745
29224, 4358, 4359, 4476, 1631
29225, 299, 1645, 4479, 1636
29226, 1730, 1729, 4463, 1744
29227, 1645, 1646, 4473, 1635
29228, 1714, 1715, 4600, 313
29229, 1645, 4473, 4479, 4363
29230, 1729, 1728, 4462, 1743
29231, 1709, 1708, 4358, 1846
29232, 4362, 4363, 4473, 1635
29233, 1842, 4473, 4474, 4362
29234, 1711, 1712, 4585, 1843
29235, 4357, 4358, 4478, 1630
29236, 1707, 4355, 4357, 1655
29237, 4355, 4357, 1655, 1629
29238, 1629, 1630, 4357, 298
29239, 4475, 1649, 4476, 4359
29240, 304, 4478, 1708, 1846
29241, 1726, 1725, 4459, 328
29242, 1711, 4360, 4361, 4477
29243, 1634, 1635, 4362, 1646
29244, 1845, 1844, 4475, 1710
29245, 1845, 1844, 1710, 1859
29246, 1631, 1632, 4359, 1649
29247, 1846, 4476, 4478, 4358
29248, 1630, 1631, 4358, 1650
29249, 1708, 4357, 4358, 4478
29250, 1648, 1649, 4475, 1632
29251, 1846, 1845, 4476, 1709
29252, 1709, 4358, 4359, 4476
29253, 4359, 4360, 4475, 1632
29254, 1710, 4359, 4360, 4475
29255, 4360, 4361, 4477, 1633
29256, 1844, 1843, 4477, 1711
29257, 1649, 1650, 4476, 1631
29258, 1647, 1648, 4477, 1633
29259, 1646, 1647, 4474, 1634
29260, 4361, 4362, 4474, 1634
29261, 1841, 313, 4479, 1714
29262, 1844, 1843, 1711, 1860
29263, 4363, 4364, 4479, 1636
29264, 1713, 4362, 4363, 4473
29265, 4473, 1646, 4474, 4362
29266, 1843, 1842, 1712, 1861
29267, 1712, 4361, 4362, 4474
29268, 1712, 1711, 4361, 1843
29269, 1633, 1634, 4361, 1647
29270, 1843, 1842, 4474, 1712
29271, 1842, 1841, 4473, 1713
29272, 1842, 1841, 1713, 1862
29273, 1636, 1637, 4364, 299
29274, 1714, 4363, 4364, 4479
29275, 1635, 1636, 4363, 1645
29276, 1713, 1712, 4362, 1842
29277, 4559, 1746, 4561, 4465
29278, 1098, 868, 113, 867
29279, 4462, 4463, 1729, 4560
29280, 1732, 1731, 4465, 1746
29281, 4175, 197, 1284, 1334
29282, 4464, 4465, 1731, 4559
29283, 4476, 1650, 4478, 4358
29284, 1287, 4156, 1335, 1286
29285, 222, 1440, 4149, 1439
29286, 4558, 1745, 4559, 4464
29287, 1714, 1713, 4363, 1841
29288, 1899, 1898, 4559, 1834
29289, 4461, 4462, 1728, 4557
29290, 4463, 4464, 1730, 4558
29291, 1733, 1732, 4466, 327
29292, 1440, 1441, 4147, 220
29293, 5401, 1525, 1402, 1566
29294, 3189, 1098, 1012, 1101
29295, 147, 1111, 134, 5676
29296, 251, 1566, 5401, 1560
29297, 48, 732, 2837, 1007
29298, 5400, 1582, 1583, 279
29299, 737, 44, 2838, 940
29300, 197, 4175, 1284, 1369
29301, 1011, 3189, 1098, 1012
29302, 1012, 3189, 1010, 1011
29303, 4459, 4460, 1726, 4562
29304, 4556, 1742, 4557, 4461
29305, 1228, 1246, 3466, 1245
29306, 67, 879, 1095, 881
29307, 1715, 1714, 4364, 313
29308, 87, 1249, 1280, 5678
29309, 1834, 1835, 4465, 1899
29310, 4460, 4461, 1727, 4556
29311, 1069, 3173, 1068, 54
29312, 4465, 4466, 1732, 4561
29313, 1058, 778, 3174, 777
29314, 1549, 1550, 5402, 218
29315, 1055, 1056, 3179, 774
29316, 1062, 1063, 3182, 782
29317, 250, 1578, 1559, 4258
29318, 1056, 1057, 3177, 775
29319, 4474, 1647, 4477, 4361
29320, 1415, 206, 1501, 5683
29321, 1464, 1534, 219, 5684
29322, 4699, 4585, 1711, 5691
29323, 4523, 4532, 1711, 5691
29324, 4532, 4699, 1711, 5691
29325, 4541, 4532, 4523, 5693
29326, 4541, 4523, 5691, 5693
29327, 4532, 5691, 4523, 5693
29328, 4532, 4699, 5691, 5693
29329, 4699, 4691, 4673, 5693
29330, 4268, 1569, 4276, 5714
29331, 1569, 1568, 4276, 5714
29332, 4278, 4286, 1579, 5715
29333, 1580, 1579, 4286, 5715
29334, 1833, 1897, 1832, 5719
29335, 1832, 1896, 1831, 5719
29336, 4699, 4691, 5693, 5728
29337, 4699, 5693, 4532, 5728
29338, 1709, 1845, 1710, 5728
29339, 1711, 1710, 1844, 5728
29340, 4699, 4532, 1711, 5728
29341, 1829, 333, 1828, 5731
29342, 1712, 1842, 1713, 5734
29343, 1713, 1841, 1714, 5734
29344, 1714, 1841, 4583, 5734
29345, 1714, 4513, 1713, 5734
29346, 1899, 1834, 1835, 5735
29347, 1834, 1898, 1833, 5737
29348, 1830, 1894, 1829, 5741
29349, 183, 1278, 3494, 5748
29350, 3494, 1279, 183, 5748
29351, 183, 1279, 3774, 5748
29352, 738, 739, 937, 5751
29353, 739, 738, 2869, 5751
29354, 937, 739, 3046, 5751
29355, 3046, 933, 937, 5751
29356, 933, 932, 937, 5751
29357, 2869, 875, 876, 5751
29358, 3048, 876, 875, 5751
29359, 942, 948, 941, 5752
29360, 873, 97, 948, 5752
29361, 948, 874, 873, 5752
29362, 948, 942, 943, 5752
29363, 942, 5751, 943, 5752
29364, 948, 875, 874, 5752
29365, 875, 5751, 874, 5752
29366, 943, 3048, 948, 5752
29367, 943, 5751, 3048, 5752
29368, 948, 3048, 875, 5752
29369, 3048, 5751, 875, 5752
29370, 1709, 1708, 1846, 5753
29371, 1831, 5719, 1896, 5758
29372, 1831, 1895, 1830, 5758
29373, 1708, 1707, 304, 5759
29374, 1483, 1386, 1387, 5760
29375, 1387, 4044, 4038, 5760
29376, 4038, 1388, 1387, 5760
29377, 1387, 1388, 1483, 5760
29378, 338, 1767, 4468, 1739
29379, 4468, 1767, 338, 4408
29380, 911, 1249, 82, 85
29381, 1478, 232, 1250, 1470
29382, 1479, 5275, 227, 5305
29383, 227, 5275, 1479, 1585
29384, 227, 1462, 1479, 5305
29385, 1479, 1462, 227, 1585
29386, 1403, 1497, 208, 1576
29387, 1403, 208, 1497, 5367
29388, 5231, 208, 1497, 1576
29389, 5231, 1497, 208, 5367
29390, 4028, 1332, 1390, 1389
29391, 4028, 1390, 1332, 1333
29392, 4156, 1390, 1332, 1389
29393, 4156, 1332, 1390, 1333
29394, 4263, 4341, 4352, 4262
29395, 4263, 4352, 4341, 4344
29396, 4294, 4425, 4454, 4428
29397, 4454, 4425, 4294, 4293
29398, 4711, 5694, 5687, 4702
29399, 5687, 5694, 4711, 5688
29400, 5687, 4650, 4711, 4702
29401, 92, 1017, 3166, 3785
29402, 92, 3166, 1017, 723
29403, 4758, 5229, 5366, 2049
29404, 4758, 5366, 5229, 293
29405, 5719, 4624, 1906, 1897
29406, 1906, 4624, 5719, 5737
29407, 1485, 240, 1493, 1499
29408, 943, 5751, 933, 3048
29409, 4555, 4615, 4537, 4519
29410, 4555, 4537, 4615, 4613
29411, 5751, 876, 739, 3046
29412, 5751, 739, 876, 2869
29413, 2901, 876, 739, 2869
29414, 113, 4027, 1098, 5700
29415, 141, 4027, 1098, 1099
29416, 141, 1098, 4027, 5700
29417, 5705, 5731, 4518, 4630
29418, 4518, 5731, 5705, 5694
29419, 732, 868, 1010, 869
29420, 732, 1010, 868, 112
29421, 5760, 195, 1331, 1338
29422, 4513, 5734, 5708, 5695
29423, 316, 1652, 4351, 4352
29424, 4351, 1652, 316, 4326
29425, 4410, 4454, 5713, 349
29426, 4410, 5713, 4454, 1737
29427, 5756, 4638, 5717, 4654
29428, 5756, 5717, 4638, 373
29429, 4511, 5726, 4710, 4619
29430, 3472, 926, 1226, 925
29431, 3472, 1226, 926, 1244
29432, 4913, 4918, 4924, 4911
29433, 4924, 4918, 4913, 5512
29434, 5685, 4968, 2104, 4857
29435, 5685, 2104, 4968, 4971
29436, 4757, 5304, 5273, 2051
29437, 5273, 5304, 4757, 356
29438, 5273, 324, 4757, 2051
29439, 4757, 324, 5273, 356
29440, 4693, 5731, 5705, 4657
29441, 5705, 5731, 4693, 5694
29442, 4879, 4867, 5515, 4884
29443, 4879, 5515, 4867, 4864
29444, 4631, 5726, 5756, 1960
29445, 5756, 5726, 4631, 4668
29446, 5696, 1585, 1480, 5276
29447, 5696, 1480, 1585, 1586
29448, 5697, 1576, 1498, 1577
29449, 5697, 1498, 1576, 5338
29450, 3005, 3587, 906, 3014
29451, 906, 3587, 3005, 3393
29452, 732, 2881, 1008, 111
29453, 868, 1008, 2881, 111
29454, 5722, 5285, 420, 2103
29455, 420, 5285, 5722, 2403
29456, 420, 4856, 5722, 2103
29457, 5722, 4856, 420, 2403
29458, 5293, 4885, 2302, 5279
29459, 5293, 2302, 4885, 2303
29460, 4941, 5355, 2323, 5341
29461, 4941, 2323, 5355, 2324
29462, 5347, 5723, 458, 2182
29463, 5347, 458, 5723, 2404
29464, 4934, 458, 5723, 2182
29465, 4934, 5723, 458, 2404
29466, 5268, 5312, 5275, 5309
29467, 5268, 5275, 5312, 259
29468, 5305, 5275, 5312, 5309
29469, 5305, 5312, 5275, 259
29470, 5371, 248, 274, 5374
29471, 737, 939, 2878, 94
29472, 5751, 2878, 939, 94
29473, 4795, 4793, 4965, 4804
29474, 4795, 4965, 4793, 5508
29475, 5724, 4965, 4793, 4804
29476, 5724, 4793, 4965, 5508
29477, 5554, 4966, 5575, 5589
29478, 5575, 4966, 5554, 4800
29479, 2554, 9, 606, 605
29480, 2554, 606, 9, 559
29481, 2714, 9, 606, 559
29482, 5688, 4538, 5694, 4530
29483, 5688, 5694, 4538, 5687
29484, 4157, 1421, 204, 1289
29485, 204, 1421, 4157, 4190
29486, 204, 184, 4157, 1289
29487, 4157, 184, 204, 4190
29488, 5538, 4472, 5681, 1840
29489, 5538, 5681, 4472, 4424
29490, 5759, 5753, 1708, 5703
29491, 5711, 1642, 4353, 4327
29492, 5711, 4353, 1642, 1643
29493, 1092, 66, 1111, 1091
29494, 1111, 66, 1092, 5676
29495, 1111, 134, 1092, 1091
29496, 1092, 134, 1111, 5676
29497, 4933, 5723, 457, 2182
29498, 457, 5723, 4933, 2183
29499, 5733, 4447, 4415, 1824
29500, 5733, 4415, 4447, 4450
29501, 4445, 4415, 4447, 1824
29502, 4445, 4447, 4415, 4450
29503, 4472, 5733, 1840, 4470
29504, 4472, 1840, 5733, 5681
29505, 5531, 1840, 5733, 4470
29506, 5531, 5733, 1840, 5681
29507, 212, 1422, 1415, 5404
29508, 1415, 1422, 212, 4198
29509, 1653, 1677, 4366, 4339
29510, 1653, 4366, 1677, 4351
29511, 4422, 4453, 4410, 1797
29512, 4410, 4453, 4422, 1738
29513, 5709, 5487, 459, 5486
29514, 5709, 459, 5487, 2199
29515, 5722, 4857, 421, 2103
29516, 5722, 421, 4857, 2104
29517, 4876, 4867, 4879, 4884
29518, 4876, 4879, 4867, 5562
29519, 3785, 5740, 3167, 931
29520, 3167, 5740, 3785, 1032
29521, 5707, 5739, 331, 1748
29522, 331, 5739, 5707, 1719
29523, 864, 1121, 46, 866
29524, 5700, 46, 1121, 866
29525, 5700, 1121, 46, 1119
29526, 1705, 1704, 5749, 4547
29527, 1705, 5749, 1704, 1867
29528, 1111, 881, 45, 879
29529, 45, 2927, 1111, 879
29530, 4658, 5755, 5730, 4687
29531, 5730, 5755, 4658, 5718
29532, 4502, 4710, 5726, 4704
29533, 4502, 5726, 4710, 4511
29534, 4561, 342, 4466, 1766
29535, 4561, 4466, 342, 1835
29536, 4479, 313, 4364, 1714
29537, 4479, 4364, 313, 1674
29538, 5268, 284, 5238, 1737
29539, 5268, 5238, 284, 5309
29540, 5371, 1652, 248, 5224
29541, 5371, 248, 1652, 274
29542, 4128, 1438, 4086, 4077
29543, 4086, 1438, 4128, 4145
29544, 4205, 4065, 4195, 4187
29545, 4205, 4195, 4065, 1416
29546, 4340, 4353, 4327, 1686
29547, 4340, 4327, 4353, 1642
29548, 5573, 4883, 2130, 4881
29549, 2130, 4883, 5573, 5602
29550, 1860, 1844, 5728, 1711
29551, 5728, 1844, 1860, 4590
29552, 1720, 1784, 4456, 4423
29553, 1720, 4456, 1784, 4455
29554, 4667, 4666, 5756, 5754
29555, 5686, 4666, 5756, 5717
29556, 5686, 5756, 4666, 5754
29557, 1714, 4583, 4600, 5708
29558, 4412, 4449, 4413, 4448
29559, 4412, 4413, 4449, 1812
29560, 4446, 4413, 4449, 4448
29561, 4446, 4449, 4413, 1812
29562, 1597, 4380, 1565, 4328
29563, 1597, 1565, 4380, 4381
29564, 5689, 3706, 1292, 3747
29565, 5689, 1292, 3706, 119
29566, 4191, 1416, 4195, 4185
29567, 4191, 4195, 1416, 1417
29568, 4127, 1437, 1585, 1438
29569, 1585, 1437, 4127, 4131
29570, 1325, 3818, 159, 3813
29571, 159, 3818, 1325, 1372
29572, 1325, 4175, 159, 1372
29573, 3467, 3019, 3006, 916
29574, 4072, 4187, 4202, 4065
29575, 4202, 4187, 4072, 4193
29576, 4202, 4063, 4072, 4065
29577, 4072, 4063, 4202, 4193
29578, 4084, 4128, 4141, 4134
29579, 4141, 4128, 4084, 4077
29580, 4141, 4075, 4084, 4134
29581, 4084, 4075, 4141, 4077
29582, 5325, 5260, 1823, 5324
29583, 5325, 1823, 5260, 5235
29584, 5387, 5216, 1608, 5191
29585, 1608, 5216, 5387, 5386
29586, 5601, 4921, 4902, 4912
29587, 4902, 4921, 5601, 5563
29588, 4902, 4907, 5601, 4912
29589, 5601, 4907, 4902, 5563
29590, 3786, 1301, 3792, 1032
29591, 3786, 3792, 1301, 3793
29592, 3799, 3792, 1301, 1032
29593, 3799, 1301, 3792, 3793
29594, 5303, 5234, 5247, 5335
29595, 5247, 5234, 5303, 5250
29596, 5206, 5397, 5396, 5365
29597, 5396, 5397, 5206, 5190
29598, 2303, 5451, 522, 5446
29599, 522, 5451, 2303, 5107
29600, 5450, 2324, 525, 5447
29601, 525, 2324, 5450, 5153
29602, 5702, 4383, 4331, 4382
29603, 5702, 4331, 4383, 1609
29604, 4373, 4331, 4383, 4382
29605, 4373, 4383, 4331, 1609
29606, 5323, 1721, 356, 5232
29607, 5323, 356, 1721, 352
29608, 5188, 289, 5348, 1643
29609, 5188, 5348, 289, 5385
29610, 5727, 4660, 5695, 5708
29611, 5727, 5695, 4660, 4662
29612, 1329, 1325, 159, 3813
29613, 1329, 159, 1325, 4175
29614, 5531, 5733, 1721, 356
29615, 1721, 5733, 5531, 5681
29616, 1236, 1246, 3466, 1237
29617, 5278, 5273, 5306, 5259
29618, 5278, 5306, 5273, 5304
29619, 5215, 5366, 5188, 5229
29620, 5215, 5188, 5366, 5340
29621, 3993, 3976, 3685, 3703
29622, 3685, 3976, 3993, 3875
29623, 3685, 3754, 3993, 3703
29624, 3993, 3754, 3685, 3875
29625, 2930, 577, 20, 711
29626, 2930, 20, 577, 624
29627, 2524, 20, 577, 711
29628, 5681, 5527, 4458, 5532
29629, 5681, 4458, 5527, 4387
29630, 3076, 1129, 3122, 983
29631, 3076, 3122, 1129, 3206
29632, 5576, 4965, 2200, 5582
29633, 2200, 4965, 5576, 4967
29634, 1765, 5335, 5738, 326
29635, 1765, 5738, 5335, 1814
29636, 300, 1599, 5190, 5397
29637, 5190, 1599, 300, 1665
29638, 4586, 4689, 1929, 4653
29639, 1929, 4689, 4586, 4604
29640, 3006, 1249, 3467, 916
29641, 5707, 4564, 4565, 4563
29642, 5753, 1846, 1858, 4589
29643, 3001, 2674, 2651, 2636
29644, 3001, 2651, 2674, 2951
29645, 4158, 4074, 4205, 4159
29646, 4158, 4205, 4074, 1416
29647, 4148, 1438, 1441, 4086
29648, 1441, 1438, 4148, 4147
29649, 1823, 5260, 1824, 5324
29650, 1823, 1824, 5260, 1719
29651, 4910, 4922, 5503, 4906
29652, 5503, 4922, 4910, 4923
29653, 5339, 1652, 5371, 5194
29654, 5339, 5371, 1652, 274
29655, 4343, 4482, 1847, 4379
29656, 1847, 4482, 4343, 4480
29657, 3020, 1231, 24, 894
29658, 3020, 24, 1231, 3019
29659, 930, 24, 1231, 894
29660, 4870, 4878, 5578, 4882
29661, 5578, 4878, 4870, 4865
29662, 2542, 3070, 596, 597
29663, 2542, 596, 3070, 627
29664, 1112, 4126, 1292, 1450
29665, 1112, 1292, 4126, 168
29666, 3055, 595, 596, 705
29667, 3055, 596, 595, 628
29668, 880, 45, 881, 74
29669, 3198, 45, 880, 74
29670, 857, 3198, 880, 74
29671, 5104, 5436, 2309, 5101
29672, 2309, 5436, 5104, 5430
29673, 5437, 5150, 2330, 5147
29674, 2330, 5150, 5437, 5431
29675, 82, 3466, 3467, 1239
29676, 82, 1249, 3467, 3006
29677, 3467, 1249, 82, 1239
29678, 1824, 5260, 5257, 5324
29679, 1824, 5257, 5260, 1720
29680, 5386, 1642, 1641, 5216
29681, 1641, 1642, 5386, 1609
29682, 1641, 1608, 5386, 5216
29683, 5386, 1608, 1641, 1609
29684, 5417, 5368, 394, 2050
29685, 5417, 394, 5368, 2415
29686, 2052, 2386, 5297, 5306
29687, 5297, 2386, 2052, 5416
29688, 2133, 5602, 4869, 4883
29689, 2133, 4869, 5602, 5555
29690, 4408, 335, 4468, 4384
29691, 4408, 4468, 335, 338
29692, 1739, 4468, 326, 4384
29693, 1739, 326, 4468, 338
29694, 4468, 335, 326, 4384
29695, 4468, 326, 335, 338
29696, 1762, 5261, 1817, 4400
29697, 1762, 1817, 5261, 5331
29698, 5705, 4611, 1941, 1925
29699, 5705, 1941, 4611, 5701
29700, 5563, 4906, 4922, 5577
29701, 5563, 4922, 4906, 4902
29702, 4733, 5308, 5279, 2107
29703, 5279, 5308, 4733, 5337
29704, 5689, 3469, 1251, 173
29705, 5751, 938, 95, 93
29706, 5751, 95, 938, 939
29707, 3786, 95, 938, 93
29708, 3786, 938, 95, 939
29709, 4583, 4600, 1841, 1714
29710, 4583, 1841, 4600, 1863
29711, 313, 1841, 4600, 1714
29712, 313, 4600, 1841, 1863
29713, 5705, 4611, 5743, 5701
29714, 5705, 5743, 4611, 1924
29715, 3468, 1241, 1242, 1240
29716, 3468, 1242, 1241, 91
29717, 1242, 1241, 169, 1240
29718, 1242, 169, 1241, 91
29719, 169, 1241, 4026, 1240
29720, 5335, 1765, 5334, 5234
29721, 5334, 1765, 5335, 1814
29722, 4626, 4681, 1951, 4652
29723, 4626, 1951, 4681, 4641
29724, 4519, 4618, 4555, 4615
29725, 4555, 4618, 4519, 4546
29726, 67, 950, 1111, 1091
29727, 67, 1111, 950, 879
29728, 98, 1111, 950, 1091
29729, 5391, 5196, 5221, 5200
29730, 5221, 5196, 5391, 5352
29731, 5290, 5244, 5262, 5329
29732, 5290, 5262, 5244, 5240
29733, 1008, 868, 110, 112
29734, 4128, 4086, 4084, 4077
29735, 4084, 4086, 4128, 4148
29736, 4159, 4065, 4205, 4187
29737, 4159, 4205, 4065, 4074
29738, 864, 865, 46, 152
29739, 864, 46, 865, 71
29740, 2920, 46, 865, 152
29741, 2920, 865, 46, 71
29742, 5330, 4398, 5262, 5245
29743, 5330, 5262, 4398, 1761
29744, 1669, 5201, 1603, 5392
29745, 1669, 1603, 5201, 4315
29746, 4738, 5155, 5384, 2323
29747, 4738, 5384, 5155, 4741
29748, 5109, 4737, 5322, 2302
29749, 5109, 5322, 4737, 4742
29750, 2186, 5373, 4941, 5341
29751, 2186, 4941, 5373, 2185
29752, 5311, 2107, 4885, 5279
29753, 5311, 4885, 2107, 2106
29754, 4313, 5389, 5209, 5225
29755, 4313, 5209, 5389, 1606
29756, 5269, 1821, 1759, 5327
29757, 1759, 1821, 5269, 4397
29758, 1483, 235, 5760, 4156
29759, 1291, 119, 3773, 187
29760, 3217, 3126, 3108, 3218
29761, 3217, 3108, 3126, 3081
29762, 5717, 4639, 5735, 4682
29763, 5717, 5735, 4639, 4628
29764, 3092, 3249, 3224, 3221
29765, 3224, 3249, 3092, 3147
29766, 95, 5751, 2878, 939
29767, 2878, 5751, 95, 2838
29768, 2878, 737, 95, 939
29769, 95, 737, 2878, 2838
29770, 1285, 4175, 1335, 1286
29771, 3661, 1284, 5677, 3720
29772, 1855, 5688, 1707, 1706
29773, 1707, 5688, 1855, 4594
29774, 5704, 4334, 1702, 4347
29775, 3249, 3123, 3105, 3147
29776, 3249, 3105, 3123, 3235
29777, 5707, 4417, 1779, 4432
29778, 2620, 588, 2580, 2536
29779, 2620, 2580, 588, 587
29780, 5683, 4190, 1421, 4186
29781, 5683, 1421, 4190, 4157
29782, 3071, 2799, 2817, 2831
29783, 3071, 2817, 2799, 642
29784, 636, 588, 635, 3061
29785, 636, 635, 588, 2536
29786, 1130, 3131, 3213, 984
29787, 3213, 3131, 1130, 3242
29788, 3733, 3972, 3955, 3933
29789, 3733, 3955, 3972, 3755
29790, 4626, 4686, 1950, 4645
29791, 4626, 1950, 4686, 4652
29792, 901, 3025, 3434, 674
29793, 901, 3434, 3025, 3436
29794, 1115, 3942, 1026, 1025
29795, 1115, 1026, 3942, 3652
29796, 3551, 3412, 3389, 3550
29797, 3551, 3389, 3412, 3333
29798, 4851, 4755, 4849, 4733
29799, 4851, 4849, 4755, 4848
29800, 4855, 4849, 4755, 4733
29801, 4855, 4755, 4849, 4848
29802, 3725, 3920, 4018, 3674
29803, 3725, 4018, 3920, 3931
29804, 3074, 3259, 976, 3130
29805, 976, 3259, 3074, 1123
29806, 4063, 4057, 1397, 4073
29807, 1397, 4057, 4063, 4062
29808, 4095, 4085, 4141, 4075
29809, 4141, 4085, 4095, 4090
29810, 150, 3773, 119, 3202
29811, 119, 3773, 150, 1291
29812, 5716, 3722, 184, 1289
29813, 2294, 518, 5043, 5628
29814, 2294, 5043, 518, 5082
29815, 519, 2296, 5052, 5085
29816, 519, 5052, 2296, 5642
29817, 511, 2283, 5019, 5070
29818, 511, 5019, 2283, 5614
29819, 2298, 520, 5061, 5656
29820, 5061, 520, 2298, 5088
29821, 2300, 521, 5073, 5670
29822, 2300, 5073, 521, 5091
29823, 5707, 4427, 1779, 4417
29824, 5707, 1779, 4427, 4439
29825, 5704, 4342, 1702, 4334
29826, 5704, 1702, 4342, 4369
29827, 3399, 3484, 3313, 1203
29828, 3399, 3313, 3484, 3498
29829, 2704, 3070, 3, 597
29830, 2704, 3, 3070, 688
29831, 4646, 4601, 4583, 4587
29832, 4583, 4601, 4646, 4701
29833, 4583, 5708, 4646, 4587
29834, 4646, 5708, 4583, 4701
29835, 3495, 3414, 3308, 3617
29836, 3308, 3414, 3495, 3816
29837, 1822, 4564, 5707, 1758
29838, 1822, 5707, 4564, 4439
29839, 5308, 4851, 2101, 4850
29840, 5308, 2101, 4851, 5337
29841, 3502, 3383, 3378, 3336
29842, 3378, 3383, 3502, 3501
29843, 5758, 4645, 5741, 4686
29844, 5758, 5741, 4645, 4625
29845, 5329, 4399, 5244, 5262
29846, 5329, 5244, 4399, 1760
29847, 1752, 5244, 4399, 5262
29848, 1752, 4399, 5244, 1760
29849, 5218, 1670, 1604, 4316
29850, 1604, 1670, 5218, 5391
29851, 3733, 3870, 3656, 3732
29852, 4317, 1668, 5393, 1602
29853, 5393, 1668, 4317, 5217
29854, 5393, 5394, 4317, 1602
29855, 4317, 5394, 5393, 5217
29856, 5261, 1817, 1763, 5332
29857, 1763, 1817, 5261, 4400
29858, 4639, 4654, 5717, 4638
29859, 5717, 4654, 4639, 4682
29860, 4645, 4648, 5741, 4686
29861, 4645, 5741, 4648, 4627
29862, 3504, 3305, 3304, 3288
29863, 3504, 3304, 3305, 3607
29864, 5750, 3848, 5699, 1337
29865, 5750, 5699, 3848, 1023
29866, 1254, 1322, 3804, 1196
29867, 1254, 3804, 1322, 4099
29868, 5752, 3440, 942, 5751
29869, 5752, 942, 3440, 941
29870, 3555, 1187, 1186, 3401
29871, 3555, 1186, 1187, 4107
29872, 5705, 5743, 4528, 5701
29873, 4528, 5743, 5705, 1826
29874, 1245, 1233, 170, 1244
29875, 1245, 3767, 1233, 1244
29876, 3767, 3651, 1233, 1244
29877, 3679, 4002, 3719, 3938
29878, 3719, 4002, 3679, 3781
29879, 3485, 3428, 3385, 3646
29880, 3385, 3428, 3485, 3359
29881, 5498, 5710, 429, 2113
29882, 5498, 429, 5710, 5489
29883, 528, 429, 5710, 2113
29884, 528, 5710, 429, 5489
29885, 3611, 3289, 3524, 3375
29886, 3524, 3289, 3611, 3516
29887, 932, 3465, 3029, 3450
29888, 932, 3029, 3465, 3034
29889, 4281, 1582, 5400, 280
29890, 4271, 5401, 1566, 278
29891, 4271, 1566, 5401, 1402
29892, 75, 881, 45, 149
29893, 75, 45, 881, 880
29894, 3198, 75, 45, 149
29895, 3198, 45, 75, 880
29896, 857, 75, 3198, 149
29897, 857, 3198, 75, 880
29898, 3397, 3620, 3638, 3298
29899, 3397, 3638, 3620, 3564
29900, 4133, 229, 1449, 4142
29901, 4133, 1449, 229, 1464
29902, 2913, 47, 730, 2850
29903, 2913, 730, 47, 731
29904, 3481, 3417, 3295, 1210
29905, 3295, 3417, 3481, 3628
29906, 3560, 3418, 3430, 3613
29907, 3560, 3430, 3418, 3332
29908, 3502, 3378, 3407, 3336
29909, 3502, 3407, 3378, 3503
29910, 3501, 3415, 3498, 3638
29911, 3498, 3415, 3501, 3383
29912, 5760, 4044, 1330, 4051
29913, 5760, 1330, 4044, 195
29914, 5465, 5107, 5321, 5451
29915, 5465, 5321, 5107, 5102
29916, 5148, 5450, 2325, 5464
29917, 5148, 2325, 5450, 5153
29918, 2975, 2682, 2979, 2666
29919, 2975, 2979, 2682, 2962
29920, 5757, 358, 315, 4506
29921, 5725, 5752, 2927, 2876
29922, 5725, 2927, 5752, 97
29923, 873, 2927, 5752, 2876
29924, 873, 5752, 2927, 97
29925, 3189, 1105, 1014, 3149
29926, 3189, 1014, 1105, 1104
29927, 5757, 315, 4505, 4506
29928, 5757, 4505, 315, 365
29929, 364, 371, 350, 4716
29930, 364, 350, 371, 4508
29931, 3644, 3309, 3351, 3290
29932, 3644, 3517, 3351, 3604
29933, 3351, 3517, 3644, 3290
29934, 3650, 1366, 1283, 1367
29935, 3650, 1283, 1366, 1282
29936, 197, 1283, 1366, 1367
29937, 197, 1366, 1283, 1282
29938, 3049, 29, 936, 3462
29939, 3049, 936, 29, 681
29940, 26, 936, 29, 3462
29941, 26, 29, 936, 681
29942, 558, 543, 7, 2692
29943, 3523, 3290, 3522, 3302
29944, 3522, 3290, 3523, 3517
29945, 4565, 4427, 5707, 4417
29946, 4565, 5707, 4427, 4564
29947, 2998, 2666, 2943, 2665
29948, 2998, 2943, 2666, 2975
29949, 1115, 3939, 3942, 1025
29950, 1115, 3942, 3939, 3749
29951, 4490, 4342, 5704, 4334
29952, 4490, 5704, 4342, 4491
29953, 3369, 3596, 3364, 3534
29954, 3369, 3364, 3596, 3276
29955, 3874, 4115, 181, 3649
29956, 3873, 4122, 178, 1182
29957, 3873, 178, 4122, 3782
29958, 3107, 3239, 3106, 3090
29959, 3107, 3106, 3239, 3256
29960, 981, 3264, 105, 3246
29961, 981, 105, 3264, 1323
29962, 3874, 4112, 4115, 1192
29963, 4115, 4112, 3874, 181
29964, 2290, 515, 5037, 5672
29965, 2290, 5037, 515, 5075
29966, 502, 2270, 5009, 5054
29967, 502, 5009, 2270, 5644
29968, 2239, 482, 4823, 5616
29969, 4823, 482, 2239, 5021
29970, 2261, 496, 4987, 5630
29971, 4987, 496, 2261, 5045
29972, 2279, 508, 4844, 5658
29973, 2279, 4844, 508, 5063
29974, 667, 2702, 2694, 2701
29975, 2694, 2702, 667, 666
29976, 3089, 3265, 3084, 3083
29977, 3089, 3084, 3265, 3250
29978, 3544, 3381, 3631, 3343
29979, 3631, 3381, 3544, 3641
29980, 3477, 3577, 3362, 3636
29981, 3477, 3362, 3577, 3363
29982, 3419, 3362, 3577, 3636
29983, 3419, 3577, 3362, 3363
29984, 2636, 3016, 3001, 2674
29985, 2636, 3001, 3016, 3011
29986, 4794, 5545, 401, 2073
29987, 401, 5545, 4794, 5567
29988, 3323, 3642, 3398, 3583
29989, 3323, 3398, 3642, 3396
29990, 3438, 889, 79, 1223
29991, 79, 889, 3438, 2938
29992, 3733, 3991, 3972, 3933
29993, 3733, 3972, 3991, 3758
29994, 201, 5716, 236, 195
29995, 5752, 2912, 2838, 873
29996, 5752, 2838, 2912, 44
29997, 4716, 1838, 350, 364
29998, 353, 350, 1838, 364
29999, 353, 1838, 350, 1797
30000, 5757, 315, 1717, 365
30001, 321, 315, 1717, 1677
30002, 321, 1717, 315, 365
30003, 3990, 3698, 3910, 3694
30004, 3990, 3910, 3698, 3996
30005, 4301, 4319, 4322, 4323
30006, 4301, 4322, 4319, 4365
30007, 4467, 4409, 4407, 4403
30008, 4467, 4407, 4409, 1836
30009, 5593, 2211, 5628, 5622
30010, 5628, 2211, 5593, 469
30011, 5594, 2074, 5614, 5608
30012, 5614, 2074, 5594, 402
30013, 2223, 5595, 5642, 475
30014, 5642, 5595, 2223, 5636
30015, 2970, 2657, 2677, 2996
30016, 2970, 2677, 2657, 2661
30017, 173, 1224, 5689, 3469
30018, 3302, 3644, 3310, 3523
30019, 3302, 3310, 3644, 3309
30020, 3542, 3310, 3644, 3523
30021, 3542, 3644, 3310, 3309
30022, 3487, 3408, 3612, 3367
30023, 3487, 3612, 3408, 3569
30024, 1639, 5747, 1653, 4366
30025, 1653, 5747, 1639, 1654
30026, 4009, 3652, 4008, 3942
30027, 4009, 4008, 3652, 3769
30028, 2926, 867, 5700, 2877
30029, 253, 4240, 1512, 4232
30030, 1512, 4240, 253, 246
30031, 246, 4206, 1504, 242
30032, 1504, 4206, 246, 4214
30033, 3778, 4016, 3713, 3868
30034, 3713, 4016, 3778, 3738
30035, 4406, 4467, 4408, 4402
30036, 4406, 4408, 4467, 4384
30037, 1959, 4499, 4715, 1958
30038, 1959, 4715, 4499, 4509
30039, 1252, 1224, 5689, 173
30040, 5631, 2227, 4996, 5012
30041, 5631, 4996, 2227, 2272
30042, 2215, 5617, 4974, 2263
30043, 4974, 5617, 2215, 4990
30044, 4826, 2241, 5024, 5603
30045, 4826, 5024, 2241, 2078
30046, 1667, 1663, 5202, 1662
30047, 1667, 5202, 1663, 1601
30048, 1756, 1763, 5246, 1755
30049, 1756, 5246, 1763, 1816
30050, 1760, 1751, 5244, 1752
30051, 1760, 5244, 1751, 1820
30052, 1670, 1658, 5200, 1605
30053, 1670, 5200, 1658, 1659
30054, 5077, 2253, 5671, 5038
30055, 5671, 2253, 5077, 514
30056, 507, 4845, 415, 2096
30057, 415, 4845, 507, 5065
30058, 2589, 590, 2622, 2537
30059, 2589, 2622, 590, 589
30060, 5683, 1501, 5406, 206
30061, 5683, 1418, 5406, 4219
30062, 5406, 1418, 5683, 206
30063, 5407, 1453, 5684, 4245
30064, 5684, 1453, 5407, 219
30065, 5684, 1534, 5407, 4245
30066, 5407, 1534, 5684, 219
30067, 3752, 3867, 3970, 3929
30068, 3752, 3970, 3867, 3700
30069, 4378, 1868, 1620, 309
30070, 4378, 1620, 1868, 4369
30071, 1599, 1620, 1868, 309
30072, 1599, 1868, 1620, 4369
30073, 4374, 1847, 1612, 4379
30074, 4374, 1612, 1847, 310
30075, 1607, 1612, 1847, 4379
30076, 1607, 1847, 1612, 310
30077, 5738, 1799, 4446, 1813
30078, 5738, 4446, 1799, 4442
30079, 1544, 1452, 4246, 4241
30080, 4246, 1452, 1544, 5187
30081, 5186, 4215, 1420, 1520
30082, 5186, 1420, 4215, 1419
30083, 3266, 3820, 1127, 3817
30084, 1127, 3820, 3266, 3216
30085, 1822, 1920, 1808, 4439
30086, 1822, 1808, 1920, 336
30087, 4444, 1808, 1920, 4439
30088, 4444, 1920, 1808, 336
30089, 337, 4442, 4566, 1814
30090, 4566, 4442, 337, 1921
30091, 4020, 3799, 4172, 4025
30092, 4172, 3799, 4020, 3794
30093, 5742, 1611, 4373, 1608
30094, 5742, 4373, 1611, 4379
30095, 507, 2278, 4845, 5657
30096, 507, 4845, 2278, 5065
30097, 2269, 501, 5011, 5056
30098, 2269, 5011, 501, 5643
30099, 2260, 495, 4989, 5047
30100, 2260, 4989, 495, 5629
30101, 481, 2238, 4825, 5615
30102, 481, 4825, 2238, 5023
30103, 1295, 3869, 3945, 4106
30104, 3945, 3869, 1295, 3965
30105, 3264, 3824, 105, 3206
30106, 3264, 105, 3824, 1323
30107, 2858, 725, 2856, 2790
30108, 2856, 725, 2858, 2916
30109, 4104, 1135, 164, 3802
30110, 4104, 164, 1135, 1259
30111, 919, 3433, 3010, 917
30112, 3010, 3433, 919, 1218
30113, 1242, 5689, 3747, 3647
30114, 720, 2712, 2933, 2931
30115, 720, 2933, 2712, 576
30116, 623, 2933, 2712, 2931
30117, 623, 2712, 2933, 576
30118, 5562, 2142, 5599, 4876
30119, 5562, 5599, 2142, 5548
30120, 4877, 5599, 2142, 4876
30121, 2183, 4933, 2198, 4959
30122, 2183, 2198, 4933, 457
30123, 463, 2198, 4933, 4959
30124, 463, 4933, 2198, 457
30125, 1244, 170, 3784, 1233
30126, 1244, 3784, 170, 1243
30127, 3016, 3001, 893, 3011
30128, 893, 3001, 3016, 2951
30129, 3603, 4125, 1212, 3482
30130, 3603, 1212, 4125, 4124
30131, 2283, 2284, 5017, 5069
30132, 5017, 2284, 2283, 5606
30133, 2295, 2294, 5041, 5620
30134, 2295, 5041, 2294, 5081
30135, 2300, 2301, 5071, 5090
30136, 2300, 5071, 2301, 5662
30137, 2299, 2298, 5059, 5648
30138, 2299, 5059, 2298, 5087
30139, 2296, 2297, 5050, 5084
30140, 5050, 2297, 2296, 5634
30141, 2403, 4856, 2112, 4860
30142, 2403, 2112, 4856, 420
30143, 426, 2112, 4856, 4860
30144, 426, 4856, 2112, 420
30145, 2254, 5671, 2253, 5032
30146, 2254, 2253, 5671, 2449
30147, 5657, 2097, 2096, 2443
30148, 5657, 2096, 2097, 4839
30149, 3283, 3544, 3381, 3595
30150, 3283, 3381, 3544, 3343
30151, 2104, 4857, 2210, 421
30152, 2104, 2210, 4857, 4968
30153, 425, 2210, 4857, 421
30154, 425, 4857, 2210, 4968
30155, 4934, 462, 2191, 458
30156, 2191, 462, 4934, 4936
30157, 2191, 2404, 4934, 458
30158, 4934, 2404, 2191, 4936
30159, 171, 4126, 1478, 4146
30160, 557, 2697, 604, 2695
30161, 604, 2697, 557, 603
30162, 82, 3779, 1249, 1280
30163, 82, 1249, 3779, 1239
30164, 2765, 613, 2836, 614
30165, 2765, 2836, 613, 2721
30166, 3814, 1336, 1126, 103
30167, 3814, 1126, 1336, 1393
30168, 614, 2719, 568, 615
30169, 568, 2719, 614, 2765
30170, 147, 134, 948, 98
30171, 147, 948, 134, 96
30172, 1111, 948, 134, 98
30173, 1111, 134, 948, 96
30174, 145, 1121, 1098, 141
30175, 1098, 1121, 145, 139
30176, 1098, 153, 145, 141
30177, 145, 153, 1098, 139
30178, 5644, 2226, 2225, 5001
30179, 2225, 2226, 5644, 2271
30180, 4979, 2262, 5623, 5630
30181, 4979, 5623, 2262, 2214
30182, 5616, 2077, 2076, 4815
30183, 5616, 2076, 2077, 2240
30184, 3397, 3396, 3497, 3564
30185, 3497, 3396, 3397, 3415
30186, 3497, 3638, 3397, 3564
30187, 3397, 3638, 3497, 3415
30188, 5700, 867, 1097, 140
30189, 1704, 322, 4607, 4554
30190, 1825, 4608, 354, 4553
30191, 1242, 1251, 5689, 3469
30192, 1386, 204, 5760, 1483
30193, 1386, 5760, 204, 4048
30194, 2885, 2733, 2736, 2734
30195, 2736, 2733, 2885, 2925
30196, 150, 1291, 4146, 1292
30197, 150, 4146, 1291, 224
30198, 187, 4146, 1291, 1292
30199, 187, 1291, 4146, 224
30200, 2918, 728, 861, 2919
30201, 2918, 861, 728, 729
30202, 184, 1493, 4190, 4157
30203, 2772, 2905, 2743, 2883
30204, 2743, 2905, 2772, 2740
30205, 1181, 4121, 1263, 4119
30206, 1181, 1263, 4121, 3413
30207, 611, 2767, 565, 612
30208, 565, 2767, 611, 2768
30209, 2510, 2542, 2615, 2595
30210, 2615, 2542, 2510, 597
30211, 2490, 2570, 2491, 2489
30212, 2491, 2570, 2490, 2568
30213, 2870, 2734, 2866, 2737
30214, 2870, 2866, 2734, 2885
30215, 2788, 611, 2769, 2768
30216, 2788, 2769, 611, 2892
30217, 2842, 611, 2769, 2892
30218, 2922, 2791, 2745, 2835
30219, 2922, 2745, 2791, 2770
30220, 1716, 1717, 4719, 1676
30221, 1716, 4719, 1717, 1893
30222, 1837, 1838, 4717, 1890
30223, 1837, 4717, 1838, 1796
30224, 372, 1959, 5746, 4503
30225, 372, 5746, 1959, 4726
30226, 5732, 5746, 1959, 4503
30227, 5732, 1959, 5746, 4726
30228, 2789, 608, 2840, 2887
30229, 2789, 2840, 608, 2720
30230, 2794, 2862, 2761, 2759
30231, 2794, 2761, 2862, 2906
30232, 611, 2795, 2769, 2768
30233, 611, 2769, 2795, 2842
30234, 5696, 234, 5427, 5307
30235, 5696, 5427, 234, 1482
30236, 5697, 237, 5424, 1494
30237, 5697, 5424, 237, 5369
30238, 726, 2873, 2916, 2917
30239, 726, 2916, 2873, 2728
30240, 2841, 2764, 2904, 2775
30241, 2841, 2904, 2764, 2897
30242, 2164, 4914, 5482, 450
30243, 5482, 4914, 2164, 4916
30244, 5482, 452, 2164, 450
30245, 2164, 452, 5482, 4916
30246, 4872, 2127, 5546, 432
30247, 4872, 5546, 2127, 4874
30248, 434, 5546, 2127, 432
30249, 434, 2127, 5546, 4874
30250, 451, 2164, 5547, 4917
30251, 451, 5547, 2164, 449
30252, 4915, 5547, 2164, 4917
30253, 4915, 2164, 5547, 449
30254, 2898, 2758, 2840, 2755
30255, 2898, 2840, 2758, 607
30256, 3466, 1229, 1230, 3470
30257, 3466, 1230, 1229, 929
30258, 2888, 2765, 2836, 614
30259, 2888, 2836, 2765, 2771
30260, 3824, 4103, 4099, 1128
30261, 2505, 2619, 2553, 2578
30262, 2754, 2879, 2894, 2903
30263, 2754, 2894, 2879, 2716
30264, 2892, 2718, 611, 2788
30265, 2892, 611, 2718, 610
30266, 617, 2763, 570, 2713
30267, 570, 2763, 617, 616
30268, 4056, 1411, 4198, 141
30269, 4056, 4198, 1411, 212
30270, 151, 4157, 1290, 1289
30271, 151, 1290, 4157, 215
30272, 186, 1290, 4157, 1289
30273, 186, 4157, 1290, 215
30274, 950, 2927, 1111, 98
30275, 950, 1111, 2927, 879
30276, 2553, 582, 2543, 2509
30277, 2553, 2543, 582, 2576
30278, 2569, 2488, 2623, 2571
30279, 2569, 2623, 2488, 2467
30280, 588, 2623, 2488, 2571
30281, 588, 2488, 2623, 2467
30282, 2543, 2505, 2553, 2509
30283, 2543, 2553, 2505, 2619
30284, 2713, 618, 2899, 736
30285, 2713, 2899, 618, 617
30286, 2951, 3013, 893, 2947
30287, 2951, 893, 3013, 3016
30288, 877, 740, 876, 3046
30289, 877, 876, 740, 2901
30290, 739, 876, 740, 3046
30291, 739, 740, 876, 2901
30292, 1687, 1688, 5744, 1706
30293, 1687, 5744, 1688, 4350
30294, 1786, 1785, 5739, 1827
30295, 1786, 5739, 1785, 4434
30296, 68, 1108, 1121, 864
30297, 68, 1121, 1108, 1110
30298, 281, 5696, 1482, 5435
30299, 281, 222, 1482, 221
30300, 5697, 277, 1494, 5434
30301, 216, 277, 1494, 217
30302, 2525, 558, 543, 7
30303, 543, 558, 2525, 2455
30304, 543, 550, 2525, 7
30305, 2616, 2459, 2601, 2478
30306, 2601, 2459, 2616, 2600
30307, 5679, 3657, 1236, 1235
30308, 3713, 5679, 3657, 1245
30309, 3713, 3657, 5679, 1235
30310, 1234, 3713, 5679, 1235
30311, 1586, 281, 1482, 221
30312, 1586, 1482, 281, 5696
30313, 277, 1577, 1494, 217
30314, 277, 1494, 1577, 5697
30315, 2570, 2500, 2517, 2489
30316, 2570, 2517, 2500, 2572
30317, 136, 67, 950, 73
30318, 136, 950, 67, 1093
30319, 69, 143, 1096, 72
30320, 69, 1096, 143, 1109
30321, 1675, 1676, 5747, 1716
30322, 1675, 5747, 1676, 4349
30323, 1796, 1795, 4468, 1837
30324, 1796, 4468, 1795, 4433
30325, 5747, 307, 300, 308
30326, 5747, 300, 307, 4301
30327, 1534, 5405, 1449, 1464
30328, 1449, 5405, 1534, 1540
30329, 5404, 1501, 1422, 1415
30330, 1422, 1501, 5404, 1516
30331, 1370, 3728, 1285, 1369
30332, 1285, 3728, 1370, 1286
30333, 1285, 4175, 1370, 1369
30334, 1370, 4175, 1285, 1286
30335, 2754, 2869, 2879, 2903
30336, 2754, 2879, 2869, 738
30337, 201, 3858, 1338, 1359
30338, 201, 236, 1338, 195
30339, 573, 572, 620, 2602
30340, 573, 620, 572, 2711
30341, 5716, 1485, 201, 236
30342, 1281, 201, 1485, 236
30343, 733, 2904, 734, 2756
30344, 734, 2904, 733, 2868
30345, 2508, 2599, 2617, 2557
30346, 2508, 2617, 2599, 2485
30347, 4370, 1604, 1614, 1670
30348, 4370, 1614, 1604, 1615
30349, 1763, 1803, 4574, 4435
30350, 4574, 1803, 1763, 1817
30351, 1617, 1667, 4485, 4377
30352, 4485, 1667, 1617, 1602
30353, 1819, 4438, 1806, 1760
30354, 1819, 1806, 4438, 1805
30355, 226, 228, 5305, 231
30356, 226, 5305, 228, 1462
30357, 1479, 5305, 228, 231
30358, 1479, 228, 5305, 1462
30359, 1497, 207, 5367, 239
30360, 1497, 5367, 207, 1403
30361, 209, 5367, 207, 239
30362, 209, 207, 5367, 1403
30363, 543, 2, 2525, 550
30364, 543, 2525, 2, 2455
30365, 5369, 266, 5424, 237
30366, 5369, 5424, 266, 5412
30367, 263, 5307, 5427, 234
30368, 5427, 5307, 263, 5413
30369, 1010, 1337, 3150, 112
30370, 1010, 3150, 1337, 5699
30371, 1019, 3150, 3848, 112
30372, 1019, 3848, 3150, 5699
30373, 3150, 1337, 3848, 112
30374, 3150, 3848, 1337, 5699
30375, 5751, 933, 3442, 943
30376, 3442, 933, 5751, 932
30377, 3442, 3450, 5751, 943
30378, 5751, 3450, 3442, 932
30379, 1832, 4560, 1831, 1896
30380, 1832, 1831, 4560, 4462
30381, 4557, 1831, 4560, 1896
30382, 4557, 4560, 1831, 4462
30383, 4475, 4477, 1710, 1844
30384, 4475, 1710, 4477, 4360
30385, 1711, 1710, 4477, 1844
30386, 1711, 4477, 1710, 4360
30387, 1831, 4557, 1830, 1895
30388, 1831, 1830, 4557, 4461
30389, 4556, 1830, 4557, 1895
30390, 4556, 4557, 1830, 4461
30391, 4476, 4475, 1709, 1845
30392, 4476, 1709, 4475, 4359
30393, 1710, 1709, 4475, 1845
30394, 1710, 4475, 1709, 4359
30395, 4469, 350, 349, 353
30396, 349, 350, 4469, 4428
30397, 315, 4367, 316, 321
30398, 315, 316, 4367, 4344
30399, 5725, 1113, 1111, 96
30400, 1111, 948, 5725, 96
30401, 98, 1111, 5725, 2927
30402, 98, 5725, 1111, 948
30403, 97, 949, 5725, 2927
30404, 97, 5725, 949, 948
30405, 949, 98, 5725, 2927
30406, 949, 5725, 98, 948
30407, 110, 1007, 868, 2837
30408, 867, 868, 1007, 2837
30409, 867, 1007, 868, 1010
30410, 874, 5752, 940, 2838
30411, 95, 5751, 874, 2838
30412, 95, 874, 940, 2838
30413, 1010, 867, 48, 113
30414, 48, 867, 1010, 1007
30415, 1010, 3150, 48, 1007
30416, 1478, 1250, 4126, 171
30417, 1478, 4126, 1250, 232
30418, 168, 4126, 1250, 171
30419, 168, 1250, 4126, 232
30420, 4156, 1338, 5760, 1331
30421, 1332, 197, 4156, 1331
30422, 197, 1338, 4156, 1331
30423, 197, 4156, 1338, 1282
30424, 5751, 874, 93, 95
30425, 3003, 3006, 24, 3017
30426, 24, 3006, 3003, 907
30427, 3472, 170, 926, 925
30428, 3150, 112, 1007, 1010
30429, 3150, 1007, 112, 110
30430, 868, 1007, 112, 1010
30431, 868, 112, 1007, 110
30432, 5700, 1097, 139, 1098
30433, 1010, 5699, 48, 3150
30434, 48, 5699, 1010, 113
30435, 1359, 1282, 1366, 197
30436, 1856, 303, 1707, 304
30437, 1856, 1707, 303, 301
30438, 1901, 334, 1828, 330
30439, 1901, 1828, 334, 333
30440, 5673, 98, 949, 3800
30441, 5673, 949, 98, 948
30442, 139, 5674, 1097, 4053
30443, 139, 1097, 5674, 1098
30444, 1911, 371, 1960, 4716
30445, 1911, 1960, 371, 4636
30446, 1369, 1368, 1284, 197
30447, 1367, 1284, 1368, 197
30448, 1367, 1368, 1284, 5677
30449, 139, 867, 5700, 2926
30450, 139, 5700, 867, 1097
30451, 4156, 1392, 1334, 1391
30452, 4156, 1334, 1392, 1335
30453, 4035, 1334, 1392, 1391
30454, 4035, 1392, 1334, 1335
30455, 5717, 1836, 373, 4549
30456, 1837, 373, 1836, 4549
30457, 1837, 1836, 373, 1795
30458, 5735, 5737, 1899, 1834
30459, 1898, 5737, 1899, 1907
30460, 1898, 1899, 5737, 1834
30461, 1896, 1895, 5758, 1904
30462, 1896, 5758, 1895, 1831
30463, 5677, 1367, 3867, 3720
30464, 5677, 3867, 1367, 1368
30465, 3765, 5677, 3867, 3720
30466, 3765, 3867, 5677, 1368
30467, 3661, 5677, 3765, 3720
30468, 3661, 3765, 5677, 1368
30469, 1894, 333, 5741, 1902
30470, 1894, 5741, 333, 1829
30471, 5731, 333, 5741, 1829
30472, 1826, 1825, 1784, 4455
30473, 346, 1825, 1784, 1912
30474, 346, 1784, 1825, 4455
30475, 345, 4577, 354, 1783
30476, 345, 354, 4577, 369
30477, 4608, 4577, 354, 369
30478, 170, 5679, 3466, 1236
30479, 3466, 5679, 170, 1245
30480, 5728, 1845, 5753, 1709
30481, 5728, 5753, 1845, 1858
30482, 1846, 5753, 1845, 1709
30483, 1846, 1845, 5753, 1858
30484, 1817, 1818, 4441, 4452
30485, 1817, 4441, 1818, 1762
30486, 1910, 1960, 373, 4717
30487, 1910, 373, 1960, 4631
30488, 1910, 1911, 4717, 1796
30489, 1910, 4717, 1911, 1960
30490, 4270, 4271, 5403, 1566
30491, 4270, 5403, 4271, 1417
30492, 741, 606, 9, 605
30493, 741, 9, 606, 2714
30494, 170, 5679, 1233, 1245
30495, 1233, 5679, 170, 1234
30496, 5679, 3767, 1233, 1245
30497, 1233, 3767, 5679, 1234
30498, 5679, 3713, 3767, 1245
30499, 3767, 3713, 5679, 1234
30500, 876, 3046, 3048, 877
30501, 82, 1249, 5678, 1280
30502, 4156, 1284, 1335, 1285
30503, 4156, 1335, 1284, 1334
30504, 4175, 1335, 1284, 1285
30505, 4175, 1284, 1335, 1334
30506, 4039, 1391, 1333, 1334
30507, 4039, 1333, 1391, 1390
30508, 4156, 1333, 1391, 1334
30509, 4156, 1391, 1333, 1390
30510, 1247, 3471, 3466, 3470
30511, 1246, 3466, 1247, 3471
30512, 732, 110, 2881, 2837
30513, 732, 2881, 110, 1008
30514, 868, 2881, 110, 2837
30515, 868, 110, 2881, 1008
30516, 1334, 4156, 1283, 1284
30517, 1283, 197, 1334, 1284
30518, 1098, 1100, 1012, 1101
30519, 1012, 1100, 1098, 1011
30520, 4037, 4029, 1012, 1101
30521, 1100, 4037, 1012, 1101
30522, 1012, 4037, 1100, 1011
30523, 1237, 1247, 1246, 3466
30524, 1237, 1246, 1247, 3760
30525, 1010, 869, 734, 733
30526, 1010, 734, 869, 870
30527, 2868, 734, 869, 733
30528, 2868, 869, 734, 870
30529, 1011, 4027, 3827, 4037
30530, 1011, 3827, 4027, 113
30531, 1011, 1098, 4027, 1099
30532, 1011, 4027, 1098, 113
30533, 1010, 3149, 870, 3189
30534, 1010, 870, 3149, 734
30535, 2908, 735, 870, 734
30536, 870, 735, 3149, 734
30537, 1865, 1961, 374, 4592
30538, 1865, 374, 1961, 4719
30539, 1865, 1866, 4719, 1961
30540, 1865, 4719, 1866, 1676
30541, 205, 5403, 1402, 1525
30542, 1566, 5403, 1402, 4271
30543, 1566, 1402, 5403, 1525
30544, 4607, 322, 4494, 359
30545, 320, 322, 4494, 1689
30546, 320, 4494, 322, 359
30547, 319, 1686, 1704, 1867
30548, 319, 1704, 1686, 4353
30549, 1705, 1704, 1686, 1867
30550, 1705, 1686, 1704, 4353
30551, 4590, 4585, 5728, 4699
30552, 4590, 5728, 4585, 1860
30553, 1711, 5728, 4585, 4699
30554, 1711, 4585, 5728, 1860
30555, 1603, 1602, 4371, 4296
30556, 1603, 4371, 1602, 1668
30557, 342, 1899, 5735, 1908
30558, 342, 5735, 1899, 1835
30559, 1244, 1227, 927, 1245
30560, 927, 1227, 1244, 926
30561, 927, 170, 1244, 1245
30562, 1244, 170, 927, 926
30563, 1898, 1897, 5737, 1906
30564, 1898, 5737, 1897, 1833
30565, 5719, 5737, 1897, 1906
30566, 5719, 1897, 5737, 1833
30567, 180, 163, 1272, 4110
30568, 180, 1272, 163, 4111
30569, 1190, 1272, 163, 4110
30570, 1190, 163, 1272, 4111
30571, 3019, 24, 3467, 3006
30572, 3466, 24, 3467, 930
30573, 1463, 5402, 218, 1549
30574, 1582, 1463, 5402, 4281
30575, 1582, 5402, 1463, 1549
30576, 5400, 1463, 1582, 4281
30577, 5400, 1582, 1463, 1549
30578, 1818, 1819, 4436, 4451
30579, 1818, 4436, 1819, 1761
30580, 1604, 1603, 4376, 4297
30581, 1604, 4376, 1603, 1669
30582, 350, 1911, 4716, 371
30583, 1420, 215, 4157, 1430
30584, 4157, 215, 1420, 5683
30585, 4157, 4165, 1420, 1430
30586, 1420, 4165, 4157, 5683
30587, 5683, 206, 4196, 1415
30588, 5683, 4196, 206, 1418
30589, 4055, 4196, 206, 1415
30590, 4055, 206, 4196, 1418
30591, 1451, 4154, 4146, 1447
30592, 4146, 4154, 1451, 5684
30593, 4146, 224, 1451, 1447
30594, 1451, 224, 4146, 5684
30595, 5684, 219, 4088, 1453
30596, 5684, 4088, 219, 1464
30597, 1826, 368, 1827, 1785
30598, 1826, 1827, 368, 5705
30599, 1900, 1827, 368, 1785
30600, 1900, 368, 1827, 5705
30601, 357, 1705, 1706, 1687
30602, 1706, 1705, 357, 5706
30603, 1706, 1855, 357, 1687
30604, 357, 1855, 1706, 5706
30605, 4268, 275, 4231, 1571
30606, 4231, 275, 4268, 5714
30607, 4231, 4224, 4268, 1571
30608, 4268, 4224, 4231, 5714
30609, 4278, 4250, 4257, 1571
30610, 4257, 4250, 4278, 5715
30611, 4257, 275, 4278, 1571
30612, 4278, 275, 4257, 5715
30613, 1836, 1909, 373, 1795
30614, 1836, 373, 1909, 5717
30615, 1910, 373, 1909, 1795
30616, 4621, 373, 1909, 1910
30617, 4621, 1909, 373, 5717
30618, 1865, 1864, 374, 1675
30619, 374, 1864, 1865, 5718
30620, 374, 4548, 1864, 5718
30621, 4548, 1715, 1864, 5718
30622, 5734, 1714, 5708, 4583
30623, 5734, 5708, 1714, 4513
30624, 4551, 1835, 5717, 1836
30625, 4551, 5717, 1835, 5735
30626, 5751, 3046, 3048, 876
30627, 3046, 933, 3048, 934
30628, 3048, 933, 3046, 5751
30629, 1866, 1717, 315, 1677
30630, 315, 1717, 1866, 5757
30631, 315, 358, 1866, 1677
30632, 1866, 358, 315, 5757
30633, 4625, 5758, 1903, 1895
30634, 4625, 1903, 5758, 5741
30635, 1830, 1903, 5758, 1895
30636, 1830, 5758, 1903, 5741
30637, 5760, 1388, 1331, 4038
30638, 5760, 1331, 1388, 4156
30639, 5760, 4038, 195, 4044
30640, 5760, 195, 4038, 1331
30641, 3843, 195, 4038, 4044
30642, 3843, 4038, 195, 1331
30643, 577, 626, 20, 2524
30644, 577, 20, 626, 624
30645, 4156, 236, 1338, 1282
30646, 168, 1224, 5689, 1252
30647, 168, 5689, 1224, 3461
30648, 912, 85, 82, 910
30649, 82, 85, 912, 911
30650, 5716, 184, 201, 1485
30651, 5716, 201, 184, 3722
30652, 1281, 201, 184, 1485
30653, 1281, 184, 201, 3722
30654, 5725, 1112, 1113, 1232
30655, 5725, 1113, 1112, 1029
30656, 172, 5689, 1242, 1251
30657, 1281, 201, 1282, 3704
30658, 1281, 1282, 201, 1359
30659, 1366, 1282, 201, 3704
30660, 1366, 201, 1282, 1359
30661, 1242, 1250, 5689, 172
30662, 5689, 171, 1242, 3747
30663, 5689, 1242, 171, 1250
30664, 1324, 3824, 4099, 3819
30665, 4099, 3824, 1324, 4103
30666, 1280, 87, 82, 910
30667, 1280, 82, 87, 5678
30668, 912, 82, 87, 910
30669, 912, 1249, 82, 911
30670, 87, 1249, 82, 912
30671, 87, 82, 1249, 5678
30672, 1715, 1716, 1864, 1675
30673, 1715, 1864, 1716, 4548
30674, 374, 1864, 1716, 1675
30675, 374, 1716, 1864, 4548
30676, 4156, 1484, 1338, 236
30677, 1338, 1484, 195, 236
30678, 195, 1484, 5716, 236
30679, 5716, 1484, 5680, 236
30680, 5687, 1944, 4703, 4650
30681, 4703, 1944, 5687, 5688
30682, 4703, 4711, 5687, 4650
30683, 5687, 4711, 4703, 5688
30684, 1485, 204, 4190, 240
30685, 4190, 204, 1485, 184
30686, 4190, 1493, 1485, 240
30687, 1485, 1493, 4190, 184
30688, 1244, 170, 3472, 1243
30689, 1244, 3472, 170, 926
30690, 1121, 46, 152, 864
30691, 1121, 152, 46, 1119
30692, 45, 1111, 149, 881
30693, 149, 1111, 45, 1113
30694, 1111, 45, 5725, 2927
30695, 5725, 45, 1111, 1113
30696, 4666, 5756, 4654, 4667
30697, 4666, 4654, 5756, 5717
30698, 1899, 4640, 5737, 5735
30699, 5737, 4640, 1899, 1907
30700, 3467, 82, 907, 3466
30701, 907, 82, 3467, 3006
30702, 907, 24, 3467, 3466
30703, 3467, 24, 907, 3006
30704, 169, 1241, 5740, 4026
30705, 5740, 1241, 169, 91
30706, 235, 4156, 1338, 5760
30707, 1338, 4156, 235, 1484
30708, 235, 1338, 195, 5760
30709, 195, 1338, 235, 1484
30710, 235, 195, 5716, 5760
30711, 5716, 195, 235, 1484
30712, 5680, 5716, 235, 1484
30713, 1483, 235, 5716, 5760
30714, 5716, 235, 1483, 5680
30715, 1368, 3661, 1284, 5677
30716, 1368, 1284, 3661, 1369
30717, 3932, 3733, 3870, 3656
30718, 3932, 3870, 3733, 3933
30719, 3767, 3756, 3998, 3651
30720, 3998, 3756, 3767, 1234
30721, 3998, 1233, 3767, 3651
30722, 3767, 1233, 3998, 1234
30723, 1784, 1825, 5743, 1912
30724, 5743, 1825, 1784, 1826
30725, 5743, 368, 1784, 1912
30726, 1784, 368, 5743, 1826
30727, 3351, 3644, 3547, 3309
30728, 3547, 3644, 3351, 3604
30729, 3547, 3374, 3351, 3309
30730, 3351, 3374, 3547, 3604
30731, 5402, 1437, 1463, 218
30732, 1463, 1437, 5402, 4281
30733, 5406, 5683, 1422, 1501
30734, 1422, 5683, 5406, 4219
30735, 1422, 1516, 5406, 1501
30736, 5406, 1516, 1422, 4219
30737, 5600, 5599, 4880, 4877
30738, 5600, 4880, 5599, 5548
30739, 2142, 4880, 5599, 4877
30740, 2142, 5599, 4880, 5548
30741, 1482, 281, 264, 222
30742, 264, 281, 1482, 5435
30743, 265, 277, 1558, 216
30744, 265, 1558, 277, 5434
30745, 1494, 1558, 277, 216
30746, 1494, 277, 1558, 5434
30747, 1338, 201, 5750, 3858
30748, 5750, 201, 1338, 195
30749, 197, 4156, 1333, 1332
30750, 197, 1333, 4156, 1282
30751, 95, 874, 5752, 940
30752, 937, 95, 5752, 940
30753, 1017, 95, 937, 940
30754, 3786, 95, 937, 1017
30755, 937, 95, 3786, 93
30756, 3786, 937, 3785, 1017
30757, 3785, 937, 3786, 93
30758, 3786, 3785, 1301, 1017
30759, 1301, 3785, 3786, 93
30760, 874, 95, 937, 93
30761, 937, 95, 874, 5752
30762, 937, 5751, 874, 93
30763, 874, 5751, 937, 5752
30764, 333, 5741, 4623, 5731
30765, 333, 4623, 5741, 1902
30766, 4577, 354, 1825, 4608
30767, 4577, 1825, 354, 1783
30768, 3657, 1236, 1245, 5679
30769, 3657, 1245, 1236, 1246
30770, 3466, 1245, 1236, 5679
30771, 3466, 1236, 1245, 1246
30772, 5403, 1417, 1402, 4271
30773, 1402, 1417, 5403, 205
30774, 197, 1334, 1282, 1283
30775, 197, 1282, 1334, 1333
30776, 4156, 1282, 1334, 1283
30777, 4156, 1334, 1282, 1333
30778, 1012, 4037, 3832, 4029
30779, 3832, 4037, 1012, 1011
30780, 735, 870, 871, 2908
30781, 3149, 870, 871, 735
30782, 871, 870, 3149, 3189
30783, 322, 4494, 1704, 4607
30784, 322, 1704, 4494, 1689
30785, 5753, 1846, 304, 1708
30786, 5753, 5759, 304, 4605
30787, 304, 5759, 5753, 1708
30788, 1857, 5753, 304, 4605
30789, 1857, 304, 5753, 1846
30790, 934, 3048, 946, 945
30791, 934, 3449, 946, 935
30792, 946, 3449, 934, 945
30793, 3046, 934, 946, 935
30794, 3046, 946, 934, 3048
30795, 24, 3467, 1231, 3019
30796, 24, 1231, 3467, 930
30797, 350, 1911, 1838, 4716
30798, 1838, 1911, 350, 1797
30799, 1835, 1836, 5735, 5717
30800, 5735, 1836, 1835, 342
30801, 1836, 4628, 5735, 5717
30802, 5735, 4628, 1836, 342
30803, 1836, 1909, 4628, 5717
30804, 4628, 1909, 1836, 342
30805, 201, 236, 1359, 1338
30806, 201, 1359, 236, 1281
30807, 1282, 1359, 236, 1338
30808, 1282, 236, 1359, 1281
*NSET, NSET=FIXED
357, 358, 359, 361, 368, 369, 371, 372, 373, 374, 1855, 1856, 1857, 1858, 1859, 1860
1861, 1862, 1863, 1864, 1865, 1866, 1867, 1869, 1872, 1873, 1881, 1900, 1901, 1902, 1903, 1904
1905, 1906, 1907, 1908, 1909, 1910, 1911, 1912, 1922, 1924, 1938, 1939, 1940, 1958, 1959, 1960
1961, 1962, 1963, 4493, 4494, 4495, 4496, 4497, 4498, 4499, 4500, 4501, 4503, 4505, 4506, 4507
4508, 4509, 4510, 4511, 4576, 4577, 4578, 4579, 4580, 4581, 4582, 4583, 4585, 4586, 4589, 4590
4592, 4594, 4595, 4597, 4600, 4602, 4605, 4606, 4607, 4608, 4613, 4614, 4615, 4616, 4617, 4618
4619, 4620, 4621, 4622, 4623, 4624, 4625, 4626, 4628, 4629, 4630, 4631, 4634, 4636, 4640, 4642
4643, 4713, 4714, 4715, 4716, 4717, 4718, 4719, 4720, 4721, 4722, 4723, 4724, 4725, 4726, 5686
5687, 5688, 5691, 5692, 5693, 5694, 5695, 5698, 5701, 5703, 5705, 5706, 5708, 5717, 5718, 5719
5720, 5726, 5727, 5728, 5729, 5730, 5731, 5732, 5734, 5735, 5736, 5737, 5741, 5743, 5746, 5749
5753, 5754, 5755, 5756, 5757, 5758, 5759
*MATERIAL, NAME=PETG_HF
*ELASTIC
2050.0, 0.38
*SOLID SECTION, ELSET=SOLID, MATERIAL=PETG_HF
*STEP
*STATIC
*BOUNDARY
FIXED, 1, 3
*CLOAD
396, 1, 0.753768844
397, 1, 0.753768844
400, 1, 0.753768844
401, 1, 0.753768844
402, 1, 0.753768844
405, 1, 0.753768844
406, 1, 0.753768844
408, 1, 0.753768844
410, 1, 0.753768844
412, 1, 0.753768844
415, 1, 0.753768844
416, 1, 0.753768844
418, 1, 0.753768844
424, 1, 0.753768844
427, 1, 0.753768844
428, 1, 0.753768844
430, 1, 0.753768844
432, 1, 0.753768844
434, 1, 0.753768844
436, 1, 0.753768844
438, 1, 0.753768844
439, 1, 0.753768844
441, 1, 0.753768844
443, 1, 0.753768844
444, 1, 0.753768844
447, 1, 0.753768844
448, 1, 0.753768844
449, 1, 0.753768844
451, 1, 0.753768844
453, 1, 0.753768844
455, 1, 0.753768844
461, 1, 0.753768844
464, 1, 0.753768844
465, 1, 0.753768844
467, 1, 0.753768844
469, 1, 0.753768844
472, 1, 0.753768844
473, 1, 0.753768844
475, 1, 0.753768844
478, 1, 0.753768844
480, 1, 0.753768844
481, 1, 0.753768844
485, 1, 0.753768844
487, 1, 0.753768844
489, 1, 0.753768844
492, 1, 0.753768844
494, 1, 0.753768844
495, 1, 0.753768844
500, 1, 0.753768844
501, 1, 0.753768844
506, 1, 0.753768844
507, 1, 0.753768844
511, 1, 0.753768844
513, 1, 0.753768844
514, 1, 0.753768844
518, 1, 0.753768844
519, 1, 0.753768844
520, 1, 0.753768844
521, 1, 0.753768844
538, 1, 0.753768844
539, 1, 0.753768844
540, 1, 0.753768844
541, 1, 0.753768844
542, 1, 0.753768844
2058, 1, 0.753768844
2059, 1, 0.753768844
2060, 1, 0.753768844
2070, 1, 0.753768844
2071, 1, 0.753768844
2072, 1, 0.753768844
2082, 1, 0.753768844
2083, 1, 0.753768844
2084, 1, 0.753768844
2096, 1, 0.753768844
2097, 1, 0.753768844
2099, 1, 0.753768844
2110, 1, 0.753768844
2111, 1, 0.753768844
2114, 1, 0.753768844
2115, 1, 0.753768844
2116, 1, 0.753768844
2117, 1, 0.753768844
2118, 1, 0.753768844
2119, 1, 0.753768844
2130, 1, 0.753768844
2131, 1, 0.753768844
2132, 1, 0.753768844
2140, 1, 0.753768844
2141, 1, 0.753768844
2150, 1, 0.753768844
2151, 1, 0.753768844
2160, 1, 0.753768844
2161, 1, 0.753768844
2162, 1, 0.753768844
2167, 1, 0.753768844
2168, 1, 0.753768844
2169, 1, 0.753768844
2170, 1, 0.753768844
2171, 1, 0.753768844
2172, 1, 0.753768844
2189, 1, 0.753768844
2190, 1, 0.753768844
2197, 1, 0.753768844
2200, 1, 0.753768844
2201, 1, 0.753768844
2202, 1, 0.753768844
2203, 1, 0.753768844
2209, 1, 0.753768844
2219, 1, 0.753768844
2220, 1, 0.753768844
2221, 1, 0.753768844
2231, 1, 0.753768844
2232, 1, 0.753768844
2233, 1, 0.753768844
2235, 1, 0.753768844
2253, 1, 0.753768844
2254, 1, 0.753768844
2255, 1, 0.753768844
2257, 1, 0.753768844
2266, 1, 0.753768844
2275, 1, 0.753768844
2286, 1, 0.753768844
2440, 1, 0.753768844
2441, 1, 0.753768844
2442, 1, 0.753768844
2443, 1, 0.753768844
2444, 1, 0.753768844
2445, 1, 0.753768844
2446, 1, 0.753768844
2447, 1, 0.753768844
2448, 1, 0.753768844
2449, 1, 0.753768844
2450, 1, 0.753768844
2451, 1, 0.753768844
2452, 1, 0.753768844
2453, 1, 0.753768844
2454, 1, 0.753768844
5541, 1, 0.753768844
5542, 1, 0.753768844
5543, 1, 0.753768844
5544, 1, 0.753768844
5545, 1, 0.753768844
5546, 1, 0.753768844
5547, 1, 0.753768844
5548, 1, 0.753768844
5549, 1, 0.753768844
5550, 1, 0.753768844
5551, 1, 0.753768844
5552, 1, 0.753768844
5553, 1, 0.753768844
5554, 1, 0.753768844
5555, 1, 0.753768844
5556, 1, 0.753768844
5557, 1, 0.753768844
5558, 1, 0.753768844
5559, 1, 0.753768844
5560, 1, 0.753768844
5561, 1, 0.753768844
5562, 1, 0.753768844
5563, 1, 0.753768844
5564, 1, 0.753768844
5565, 1, 0.753768844
5566, 1, 0.753768844
5567, 1, 0.753768844
5568, 1, 0.753768844
5569, 1, 0.753768844
5570, 1, 0.753768844
5571, 1, 0.753768844
5572, 1, 0.753768844
5573, 1, 0.753768844
5574, 1, 0.753768844
5575, 1, 0.753768844
5576, 1, 0.753768844
5577, 1, 0.753768844
5578, 1, 0.753768844
5579, 1, 0.753768844
5580, 1, 0.753768844
5581, 1, 0.753768844
5582, 1, 0.753768844
5583, 1, 0.753768844
5584, 1, 0.753768844
5585, 1, 0.753768844
5586, 1, 0.753768844
5587, 1, 0.753768844
5588, 1, 0.753768844
5589, 1, 0.753768844
5590, 1, 0.753768844
5591, 1, 0.753768844
5592, 1, 0.753768844
5593, 1, 0.753768844
5594, 1, 0.753768844
5595, 1, 0.753768844
5596, 1, 0.753768844
5597, 1, 0.753768844
5598, 1, 0.753768844
5599, 1, 0.753768844
5600, 1, 0.753768844
5601, 1, 0.753768844
5602, 1, 0.753768844
*NODE FILE
U
*EL FILE
S
*END STEP
